138
REAL frame=0
C -1.5974 -1.5656 -1.5709
C -1.6005 -1.5676 -1.5703
C -1.5980 -1.5611 -1.5705
C -1.5950 -1.5651 -1.5687
C -1.5947 -1.5696 -1.5728
C -1.5898 -1.5692 -1.5722
C -1.5959 -1.5731 -1.5748
C -1.5977 -1.5688 -1.5729
C -1.6023 -1.5724 -1.5713
C -1.5946 -1.5647 -1.5751
C -1.5912 -1.5617 -1.5735
C -1.5960 -1.5631 -1.5762
C -1.5979 -1.5613 -1.5728
C -1.5920 -1.5591 -1.5786
C -1.5900 -1.5536 -1.5762
C -1.5895 -1.5629 -1.5801
C -1.5932 -1.5559 -1.5821
C -1.5931 -1.5624 -1.5861
C -1.5902 -1.5695 -1.5868
C -1.5965 -1.5597 -1.5889
C -1.5954 -1.5654 -1.5921
C -1.5994 -1.5503 -1.5885
C -1.6019 -1.5470 -1.5913
C -1.5925 -1.5455 -1.5856
C -1.5992 -1.5443 -1.5843
C -1.6024 -1.5372 -1.5828
C -1.5958 -1.5470 -1.5808
C -1.5970 -1.5404 -1.5776
C -1.5993 -1.5679 -1.5776
C -1.6010 -1.5739 -1.5774
C -1.5981 -1.5654 -1.5803
C -1.5953 -1.5595 -1.5816
C -1.5995 -1.5709 -1.5843
C -1.5961 -1.5720 -1.5880
C -1.6041 -1.5760 -1.5858
C -1.6020 -1.5767 -1.5845
C -1.6054 -1.5806 -1.5904
C -1.6089 -1.5747 -1.5827
C -1.6055 -1.5666 -1.5838
C -1.6171 -1.5815 -1.5784
C -1.6004 -1.5684 -1.5828
C -1.6038 -1.5656 -1.5795
C -1.5969 -1.5698 -1.5837
C -1.5937 -1.5725 -1.5861
C -1.5961 -1.5746 -1.5873
C -1.5899 -1.5718 -1.5876
C -1.5927 -1.5734 -1.5869
C -1.5962 -1.5755 -1.5882
C -1.5883 -1.5742 -1.5881
C -1.5934 -1.5685 -1.5839
C -1.5947 -1.5682 -1.5838
C -1.5888 -1.5660 -1.5823
C -1.5982 -1.5668 -1.5819
C -1.5972 -1.5618 -1.5803
C -1.6044 -1.5676 -1.5816
C -1.6062 -1.5659 -1.5820
C -1.6067 -1.5697 -1.5812
C -1.6041 -1.5712 -1.5813
C -1.6138 -1.5716 -1.5819
C -1.6144 -1.5695 -1.5804
C -1.6142 -1.5786 -1.5860
C -1.6142 -1.5813 -1.5881
C -1.6194 -1.5809 -1.5843
C -1.6112 -1.5805 -1.5891
C -1.6070 -1.5810 -1.5911
C -1.6135 -1.5844 -1.5913
C -1.6105 -1.5758 -1.5872
C -1.6065 -1.5734 -1.5888
C -1.6133 -1.5744 -1.5831
C -1.6201 -1.5687 -1.5791
C -1.6260 -1.5662 -1.5768
C -1.6186 -1.5692 -1.5790
C -1.6118 -1.5711 -1.5792
C -1.6225 -1.5666 -1.5768
C -1.6252 -1.5626 -1.5758
C -1.6260 -1.5713 -1.5775
C -1.6294 -1.5676 -1.5762
C -1.6301 -1.5752 -1.5792
C -1.6260 -1.5694 -1.5852
C -1.6354 -1.5741 -1.5719
C -1.6328 -1.5855 -1.5851
C -1.6225 -1.5769 -1.5783
C -1.6210 -1.5815 -1.5794
C -1.6194 -1.5634 -1.5755
C -1.6219 -1.5646 -1.5769
C -1.6139 -1.5594 -1.5744
C -1.6122 -1.5571 -1.5735
C -1.6119 -1.5576 -1.5742
C -1.6105 -1.5620 -1.5745
C -1.6107 -1.5543 -1.5751
C -1.6116 -1.5547 -1.5716
C -1.6125 -1.5491 -1.5687
C -1.6098 -1.5592 -1.5728
C -1.6074 -1.5641 -1.5754
C -1.6085 -1.5592 -1.5717
C -1.6095 -1.5571 -1.5695
C -1.6104 -1.5638 -1.5720
C -1.6071 -1.5672 -1.5629
C -1.6170 -1.5520 -1.5743
C -1.6165 -1.5453 -1.5801
C -1.6166 -1.5520 -1.5675
C -1.6215 -1.5508 -1.5761
C -1.6102 -1.5759 -1.5810
C -1.6041 -1.5808 -1.5806
C -1.6043 -1.5579 -1.5720
C -1.6031 -1.5608 -1.5740
C -1.6008 -1.5507 -1.5708
C -1.6030 -1.5481 -1.5695
C -1.5959 -1.5466 -1.5699
C -1.5938 -1.5443 -1.5700
C -1.5978 -1.5411 -1.5663
C -1.6010 -1.5414 -1.5635
C -1.5951 -1.5385 -1.5660
C -1.6003 -1.5372 -1.5646
C -1.6064 -1.5375 -1.5693
C -1.6098 -1.5388 -1.5752
C -1.6083 -1.5344 -1.5635
C -1.6135 -1.5338 -1.5644
C -1.6015 -1.5304 -1.5563
C -1.5988 -1.5258 -1.5490
C -1.6032 -1.5243 -1.5475
C -1.5905 -1.5233 -1.5426
C -1.5883 -1.5199 -1.5369
C -1.5862 -1.5254 -1.5428
C -1.5797 -1.5242 -1.5380
C -1.5888 -1.5296 -1.5498
C -1.5867 -1.5313 -1.5518
C -1.5964 -1.5324 -1.5566
C -1.5919 -1.5494 -1.5724
C -1.5931 -1.5534 -1.5717
C -1.5859 -1.5465 -1.5735
C -1.5843 -1.5439 -1.5725
C -1.5818 -1.5489 -1.5750
C -1.5784 -1.5457 -1.5787
C -1.5796 -1.5477 -1.5735
C -1.5849 -1.5558 -1.5744
C -1.5872 -1.5582 -1.5750
C -1.5849 -1.5589 -1.5739
138
REAL frame=1
C -1.5985 -1.5667 -1.5722
C -1.6014 -1.5688 -1.5714
C -1.5990 -1.5622 -1.5721
C -1.5960 -1.5658 -1.5696
C -1.5957 -1.5705 -1.5739
C -1.5910 -1.5699 -1.5736
C -1.5967 -1.5741 -1.5763
C -1.5987 -1.5698 -1.5739
C -1.6034 -1.5735 -1.5725
C -1.5957 -1.5659 -1.5761
C -1.5921 -1.5626 -1.5747
C -1.5971 -1.5641 -1.5772
C -1.5991 -1.5623 -1.5738
C -1.5930 -1.5602 -1.5797
C -1.5913 -1.5552 -1.5770
C -1.5904 -1.5640 -1.5811
C -1.5944 -1.5569 -1.5832
C -1.5943 -1.5634 -1.5871
C -1.5910 -1.5707 -1.5876
C -1.5976 -1.5607 -1.5900
C -1.5967 -1.5666 -1.5931
C -1.6005 -1.5513 -1.5896
C -1.6031 -1.5481 -1.5924
C -1.5937 -1.5466 -1.5870
C -1.6005 -1.5454 -1.5853
C -1.6035 -1.5384 -1.5836
C -1.5968 -1.5481 -1.5820
C -1.5980 -1.5417 -1.5787
C -1.6004 -1.5690 -1.5787
C -1.6021 -1.5748 -1.5784
C -1.5991 -1.5665 -1.5812
C -1.5963 -1.5606 -1.5827
C -1.6004 -1.5720 -1.5854
C -1.5973 -1.5728 -1.5892
C -1.6051 -1.5771 -1.5870
C -1.6032 -1.5780 -1.5857
C -1.6068 -1.5815 -1.5910
C -1.6099 -1.5757 -1.5839
C -1.6065 -1.5677 -1.5849
C -1.6182 -1.5826 -1.5795
C -1.6014 -1.5695 -1.5838
C -1.6047 -1.5668 -1.5806
C -1.5979 -1.5707 -1.5845
C -1.5949 -1.5737 -1.5873
C -1.5973 -1.5757 -1.5883
C -1.5911 -1.5729 -1.5889
C -1.5938 -1.5745 -1.5880
C -1.5973 -1.5766 -1.5890
C -1.5895 -1.5751 -1.5894
C -1.5944 -1.5695 -1.5849
C -1.5950 -1.5692 -1.5850
C -1.5902 -1.5679 -1.5834
C -1.5993 -1.5679 -1.5830
C -1.5984 -1.5629 -1.5811
C -1.6054 -1.5687 -1.5828
C -1.6073 -1.5670 -1.5831
C -1.6078 -1.5709 -1.5823
C -1.6049 -1.5721 -1.5819
C -1.6148 -1.5728 -1.5829
C -1.6156 -1.5709 -1.5820
C -1.6154 -1.5799 -1.5872
C -1.6150 -1.5825 -1.5890
C -1.6202 -1.5820 -1.5849
C -1.6122 -1.5815 -1.5901
C -1.6079 -1.5819 -1.5924
C -1.6144 -1.5860 -1.5924
C -1.6117 -1.5771 -1.5884
C -1.6076 -1.5745 -1.5898
C -1.6144 -1.5755 -1.5841
C -1.6211 -1.5698 -1.5804
C -1.6271 -1.5674 -1.5778
C -1.6197 -1.5702 -1.5801
C -1.6130 -1.5720 -1.5807
C -1.6234 -1.5676 -1.5779
C -1.6263 -1.5635 -1.5772
C -1.6273 -1.5725 -1.5787
C -1.6300 -1.5692 -1.5773
C -1.6311 -1.5763 -1.5803
C -1.6271 -1.5706 -1.5865
C -1.6361 -1.5753 -1.5724
C -1.6341 -1.5865 -1.5861
C -1.6234 -1.5779 -1.5795
C -1.6217 -1.5819 -1.5808
C -1.6204 -1.5645 -1.5767
C -1.6231 -1.5657 -1.5778
C -1.6151 -1.5605 -1.5755
C -1.6134 -1.5584 -1.5747
C -1.6131 -1.5589 -1.5754
C -1.6118 -1.5633 -1.5756
C -1.6122 -1.5552 -1.5768
C -1.6126 -1.5558 -1.5726
C -1.6137 -1.5502 -1.5698
C -1.6110 -1.5604 -1.5740
C -1.6087 -1.5653 -1.5766
C -1.6095 -1.5602 -1.5728
C -1.6109 -1.5582 -1.5706
C -1.6113 -1.5648 -1.5732
C -1.6080 -1.5683 -1.5643
C -1.6179 -1.5531 -1.5756
C -1.6171 -1.5462 -1.5809
C -1.6175 -1.5528 -1.5687
C -1.6225 -1.5518 -1.5774
C -1.6111 -1.5770 -1.5821
C -1.6051 -1.5819 -1.5819
C -1.6053 -1.5590 -1.5730
C -1.6041 -1.5618 -1.5752
C -1.6017 -1.5518 -1.5719
C -1.6038 -1.5490 -1.5707
C -1.5969 -1.5477 -1.5711
C -1.5948 -1.5458 -1.5714
C -1.5988 -1.5424 -1.5674
C -1.6025 -1.5427 -1.5650
C -1.5959 -1.5395 -1.5675
C -1.6014 -1.5384 -1.5657
C -1.6075 -1.5386 -1.5704
C -1.6112 -1.5401 -1.5763
C -1.6095 -1.5354 -1.5646
C -1.6146 -1.5348 -1.5654
C -1.6026 -1.5315 -1.5573
C -1.5999 -1.5270 -1.5502
C -1.6041 -1.5253 -1.5489
C -1.5917 -1.5245 -1.5439
C -1.5892 -1.5210 -1.5382
C -1.5873 -1.5264 -1.5439
C -1.5806 -1.5248 -1.5390
C -1.5898 -1.5308 -1.5510
C -1.5875 -1.5325 -1.5532
C -1.5974 -1.5336 -1.5577
C -1.5928 -1.5505 -1.5734
C -1.5942 -1.5546 -1.5728
C -1.5870 -1.5475 -1.5745
C -1.5854 -1.5450 -1.5740
C -1.5830 -1.5500 -1.5763
C -1.5793 -1.5469 -1.5794
C -1.5812 -1.5488 -1.5748
C -1.5859 -1.5570 -1.5754
C -1.5882 -1.5594 -1.5761
C -1.5859 -1.5599 -1.5750
138
REAL frame=2
C -1.5984 -1.5667 -1.5724
C -1.6014 -1.5688 -1.5715
C -1.5991 -1.5620 -1.5728
C -1.5960 -1.5659 -1.5697
C -1.5958 -1.5703 -1.5739
C -1.5911 -1.5695 -1.5740
C -1.5966 -1.5742 -1.5765
C -1.5987 -1.5699 -1.5738
C -1.6035 -1.5734 -1.5725
C -1.5959 -1.5661 -1.5761
C -1.5918 -1.5622 -1.5751
C -1.5972 -1.5640 -1.5771
C -1.5991 -1.5619 -1.5739
C -1.5928 -1.5601 -1.5797
C -1.5914 -1.5557 -1.5769
C -1.5902 -1.5640 -1.5810
C -1.5945 -1.5569 -1.5832
C -1.5943 -1.5633 -1.5871
C -1.5908 -1.5707 -1.5875
C -1.5975 -1.5607 -1.5900
C -1.5969 -1.5664 -1.5932
C -1.6006 -1.5513 -1.5896
C -1.6032 -1.5482 -1.5925
C -1.5938 -1.5465 -1.5871
C -1.6006 -1.5454 -1.5853
C -1.6036 -1.5385 -1.5835
C -1.5967 -1.5481 -1.5821
C -1.5978 -1.5423 -1.5787
C -1.6004 -1.5691 -1.5787
C -1.6022 -1.5747 -1.5784
C -1.5991 -1.5666 -1.5811
C -1.5962 -1.5608 -1.5826
C -1.6003 -1.5720 -1.5854
C -1.5973 -1.5727 -1.5892
C -1.6050 -1.5771 -1.5870
C -1.6032 -1.5783 -1.5860
C -1.6073 -1.5813 -1.5906
C -1.6099 -1.5756 -1.5839
C -1.6063 -1.5678 -1.5849
C -1.6183 -1.5826 -1.5794
C -1.6014 -1.5695 -1.5837
C -1.6046 -1.5669 -1.5807
C -1.5978 -1.5706 -1.5844
C -1.5950 -1.5738 -1.5875
C -1.5973 -1.5758 -1.5883
C -1.5913 -1.5732 -1.5888
C -1.5939 -1.5746 -1.5882
C -1.5974 -1.5766 -1.5889
C -1.5896 -1.5750 -1.5895
C -1.5944 -1.5694 -1.5849
C -1.5945 -1.5691 -1.5851
C -1.5905 -1.5687 -1.5835
C -1.5992 -1.5678 -1.5831
C -1.5985 -1.5632 -1.5807
C -1.6054 -1.5686 -1.5831
C -1.6073 -1.5670 -1.5830
C -1.6078 -1.5709 -1.5822
C -1.6047 -1.5719 -1.5813
C -1.6147 -1.5729 -1.5828
C -1.6159 -1.5711 -1.5824
C -1.6155 -1.5800 -1.5873
C -1.6146 -1.5826 -1.5887
C -1.6201 -1.5819 -1.5847
C -1.6121 -1.5814 -1.5900
C -1.6077 -1.5817 -1.5924
C -1.6143 -1.5864 -1.5922
C -1.6118 -1.5773 -1.5885
C -1.6076 -1.5746 -1.5898
C -1.6145 -1.5753 -1.5840
C -1.6211 -1.5698 -1.5805
C -1.6272 -1.5674 -1.5778
C -1.6197 -1.5700 -1.5800
C -1.6133 -1.5717 -1.5812
C -1.6233 -1.5675 -1.5780
C -1.6263 -1.5634 -1.5772
C -1.6274 -1.5727 -1.5787
C -1.6296 -1.5696 -1.5772
C -1.6311 -1.5763 -1.5802
C -1.6270 -1.5707 -1.5865
C -1.6356 -1.5755 -1.5714
C -1.6345 -1.5863 -1.5862
C -1.6233 -1.5779 -1.5795
C -1.6214 -1.5811 -1.5810
C -1.6203 -1.5643 -1.5768
C -1.6233 -1.5656 -1.5775
C -1.6153 -1.5605 -1.5756
C -1.6134 -1.5585 -1.5750
C -1.6131 -1.5590 -1.5754
C -1.6121 -1.5634 -1.5758
C -1.6126 -1.5550 -1.5773
C -1.6126 -1.5558 -1.5724
C -1.6138 -1.5502 -1.5698
C -1.6111 -1.5605 -1.5741
C -1.6090 -1.5653 -1.5766
C -1.6094 -1.5602 -1.5727
C -1.6112 -1.5581 -1.5705
C -1.6112 -1.5646 -1.5734
C -1.6080 -1.5682 -1.5646
C -1.6177 -1.5531 -1.5757
C -1.6167 -1.5461 -1.5808
C -1.6175 -1.5526 -1.5687
C -1.6224 -1.5516 -1.5774
C -1.6109 -1.5769 -1.5820
C -1.6054 -1.5821 -1.5824
C -1.6052 -1.5589 -1.5728
C -1.6039 -1.5617 -1.5753
C -1.6017 -1.5517 -1.5719
C -1.6033 -1.5489 -1.5707
C -1.5968 -1.5477 -1.5712
C -1.5948 -1.5461 -1.5717
C -1.5988 -1.5425 -1.5673
C -1.6028 -1.5432 -1.5656
C -1.5958 -1.5393 -1.5677
C -1.6014 -1.5385 -1.5657
C -1.6075 -1.5387 -1.5703
C -1.6115 -1.5406 -1.5761
C -1.6096 -1.5352 -1.5646
C -1.6148 -1.5347 -1.5654
C -1.6025 -1.5315 -1.5572
C -1.5999 -1.5269 -1.5502
C -1.6039 -1.5252 -1.5493
C -1.5918 -1.5245 -1.5439
C -1.5891 -1.5209 -1.5384
C -1.5874 -1.5263 -1.5438
C -1.5805 -1.5242 -1.5387
C -1.5899 -1.5309 -1.5510
C -1.5870 -1.5326 -1.5527
C -1.5974 -1.5337 -1.5577
C -1.5928 -1.5505 -1.5733
C -1.5943 -1.5548 -1.5728
C -1.5870 -1.5475 -1.5744
C -1.5857 -1.5448 -1.5743
C -1.5831 -1.5500 -1.5764
C -1.5791 -1.5470 -1.5789
C -1.5817 -1.5490 -1.5751
C -1.5859 -1.5571 -1.5754
C -1.5882 -1.5595 -1.5761
C -1.5858 -1.5598 -1.5749
138
REAL frame=3
C -1.5984 -1.5667 -1.5724
C -1.6014 -1.5686 -1.5716
C -1.5993 -1.5617 -1.5735
C -1.5960 -1.5662 -1.5702
C -1.5959 -1.5700 -1.5740
C -1.5911 -1.5690 -1.5745
C -1.5965 -1.5744 -1.5764
C -1.5987 -1.5699 -1.5737
C -1.6035 -1.5734 -1.5726
C -1.5960 -1.5663 -1.5761
C -1.5915 -1.5618 -1.5758
C -1.5973 -1.5640 -1.5769
C -1.5990 -1.5615 -1.5740
C -1.5927 -1.5599 -1.5798
C -1.5912 -1.5559 -1.5771
C -1.5902 -1.5640 -1.5809
C -1.5947 -1.5569 -1.5832
C -1.5944 -1.5633 -1.5870
C -1.5908 -1.5706 -1.5875
C -1.5975 -1.5607 -1.5901
C -1.5972 -1.5661 -1.5933
C -1.6006 -1.5512 -1.5896
C -1.6033 -1.5483 -1.5925
C -1.5939 -1.5466 -1.5871
C -1.6008 -1.5454 -1.5852
C -1.6036 -1.5384 -1.5836
C -1.5966 -1.5480 -1.5822
C -1.5976 -1.5430 -1.5788
C -1.6004 -1.5691 -1.5787
C -1.6023 -1.5746 -1.5784
C -1.5992 -1.5667 -1.5810
C -1.5961 -1.5612 -1.5823
C -1.6003 -1.5719 -1.5854
C -1.5972 -1.5727 -1.5892
C -1.6049 -1.5770 -1.5871
C -1.6031 -1.5786 -1.5863
C -1.6075 -1.5811 -1.5903
C -1.6099 -1.5755 -1.5839
C -1.6063 -1.5679 -1.5850
C -1.6183 -1.5825 -1.5794
C -1.6013 -1.5696 -1.5835
C -1.6045 -1.5670 -1.5807
C -1.5977 -1.5704 -1.5843
C -1.5952 -1.5739 -1.5877
C -1.5974 -1.5762 -1.5887
C -1.5915 -1.5736 -1.5882
C -1.5939 -1.5745 -1.5883
C -1.5974 -1.5765 -1.5890
C -1.5899 -1.5752 -1.5896
C -1.5944 -1.5694 -1.5848
C -1.5941 -1.5691 -1.5852
C -1.5908 -1.5694 -1.5835
C -1.5991 -1.5677 -1.5832
C -1.5985 -1.5635 -1.5802
C -1.6054 -1.5685 -1.5833
C -1.6074 -1.5669 -1.5830
C -1.6078 -1.5710 -1.5821
C -1.6044 -1.5716 -1.5806
C -1.6147 -1.5729 -1.5827
C -1.6163 -1.5712 -1.5826
C -1.6156 -1.5801 -1.5873
C -1.6141 -1.5828 -1.5885
C -1.6201 -1.5818 -1.5848
C -1.6120 -1.5813 -1.5900
C -1.6073 -1.5815 -1.5924
C -1.6142 -1.5868 -1.5919
C -1.6120 -1.5773 -1.5885
C -1.6075 -1.5747 -1.5899
C -1.6146 -1.5752 -1.5839
C -1.6211 -1.5698 -1.5806
C -1.6273 -1.5674 -1.5778
C -1.6197 -1.5698 -1.5799
C -1.6137 -1.5714 -1.5818
C -1.6233 -1.5674 -1.5780
C -1.6264 -1.5633 -1.5769
C -1.6275 -1.5727 -1.5787
C -1.6294 -1.5700 -1.5772
C -1.6311 -1.5763 -1.5803
C -1.6267 -1.5707 -1.5863
C -1.6351 -1.5757 -1.5704
C -1.6348 -1.5861 -1.5862
C -1.6233 -1.5779 -1.5795
C -1.6210 -1.5804 -1.5812
C -1.6203 -1.5642 -1.5769
C -1.6234 -1.5655 -1.5772
C -1.6155 -1.5605 -1.5757
C -1.6133 -1.5588 -1.5752
C -1.6131 -1.5592 -1.5755
C -1.6123 -1.5634 -1.5761
C -1.6127 -1.5550 -1.5778
C -1.6126 -1.5558 -1.5723
C -1.6138 -1.5501 -1.5698
C -1.6111 -1.5607 -1.5741
C -1.6094 -1.5653 -1.5766
C -1.6094 -1.5602 -1.5726
C -1.6114 -1.5581 -1.5705
C -1.6111 -1.5645 -1.5735
C -1.6079 -1.5682 -1.5649
C -1.6176 -1.5530 -1.5758
C -1.6163 -1.5460 -1.5811
C -1.6177 -1.5525 -1.5687
C -1.6224 -1.5514 -1.5774
C -1.6108 -1.5768 -1.5819
C -1.6059 -1.5823 -1.5830
C -1.6050 -1.5587 -1.5727
C -1.6038 -1.5617 -1.5754
C -1.6018 -1.5517 -1.5720
C -1.6028 -1.5487 -1.5707
C -1.5968 -1.5477 -1.5713
C -1.5947 -1.5463 -1.5719
C -1.5988 -1.5425 -1.5673
C -1.6029 -1.5439 -1.5661
C -1.5956 -1.5390 -1.5677
C -1.6013 -1.5385 -1.5658
C -1.6076 -1.5387 -1.5701
C -1.6119 -1.5413 -1.5759
C -1.6096 -1.5350 -1.5645
C -1.6149 -1.5346 -1.5656
C -1.6024 -1.5315 -1.5570
C -1.6000 -1.5268 -1.5502
C -1.6036 -1.5252 -1.5498
C -1.5919 -1.5245 -1.5439
C -1.5889 -1.5208 -1.5385
C -1.5875 -1.5262 -1.5437
C -1.5806 -1.5236 -1.5384
C -1.5900 -1.5310 -1.5511
C -1.5862 -1.5326 -1.5517
C -1.5975 -1.5337 -1.5578
C -1.5927 -1.5505 -1.5732
C -1.5944 -1.5549 -1.5728
C -1.5870 -1.5476 -1.5743
C -1.5861 -1.5446 -1.5746
C -1.5832 -1.5500 -1.5764
C -1.5790 -1.5473 -1.5784
C -1.5821 -1.5494 -1.5754
C -1.5858 -1.5571 -1.5754
C -1.5882 -1.5596 -1.5760
C -1.5858 -1.5598 -1.5748
138
REAL frame=4
C -1.5984 -1.5666 -1.5724
C -1.6014 -1.5684 -1.5718
C -1.5995 -1.5614 -1.5741
C -1.5960 -1.5667 -1.5710
C -1.5960 -1.5699 -1.5742
C -1.5912 -1.5684 -1.5750
C -1.5964 -1.5746 -1.5761
C -1.5986 -1.5700 -1.5737
C -1.6036 -1.5734 -1.5726
C -1.5961 -1.5664 -1.5761
C -1.5914 -1.5616 -1.5764
C -1.5973 -1.5639 -1.5768
C -1.5989 -1.5612 -1.5743
C -1.5927 -1.5598 -1.5798
C -1.5909 -1.5558 -1.5773
C -1.5903 -1.5639 -1.5809
C -1.5948 -1.5570 -1.5831
C -1.5944 -1.5632 -1.5869
C -1.5910 -1.5705 -1.5876
C -1.5974 -1.5607 -1.5903
C -1.5974 -1.5657 -1.5934
C -1.6006 -1.5511 -1.5895
C -1.6034 -1.5484 -1.5926
C -1.5940 -1.5468 -1.5870
C -1.6009 -1.5453 -1.5852
C -1.6036 -1.5382 -1.5838
C -1.5967 -1.5480 -1.5823
C -1.5971 -1.5437 -1.5790
C -1.6003 -1.5690 -1.5786
C -1.6025 -1.5745 -1.5784
C -1.5993 -1.5669 -1.5810
C -1.5960 -1.5617 -1.5820
C -1.6002 -1.5718 -1.5854
C -1.5968 -1.5727 -1.5891
C -1.6047 -1.5770 -1.5870
C -1.6028 -1.5788 -1.5866
C -1.6075 -1.5809 -1.5902
C -1.6100 -1.5754 -1.5838
C -1.6062 -1.5680 -1.5851
C -1.6183 -1.5825 -1.5794
C -1.6012 -1.5696 -1.5833
C -1.6044 -1.5671 -1.5807
C -1.5977 -1.5702 -1.5843
C -1.5953 -1.5740 -1.5878
C -1.5975 -1.5765 -1.5892
C -1.5918 -1.5741 -1.5875
C -1.5940 -1.5743 -1.5884
C -1.5974 -1.5763 -1.5893
C -1.5901 -1.5754 -1.5896
C -1.5944 -1.5694 -1.5848
C -1.5938 -1.5691 -1.5853
C -1.5911 -1.5698 -1.5834
C -1.5990 -1.5676 -1.5833
C -1.5985 -1.5638 -1.5799
C -1.6054 -1.5684 -1.5835
C -1.6074 -1.5668 -1.5830
C -1.6078 -1.5711 -1.5821
C -1.6042 -1.5713 -1.5801
C -1.6148 -1.5729 -1.5827
C -1.6166 -1.5712 -1.5826
C -1.6157 -1.5802 -1.5872
C -1.6136 -1.5829 -1.5885
C -1.6203 -1.5817 -1.5852
C -1.6119 -1.5813 -1.5901
C -1.6070 -1.5814 -1.5923
C -1.6142 -1.5870 -1.5917
C -1.6122 -1.5773 -1.5884
C -1.6075 -1.5749 -1.5900
C -1.6146 -1.5752 -1.5839
C -1.6211 -1.5698 -1.5806
C -1.6273 -1.5675 -1.5778
C -1.6197 -1.5696 -1.5799
C -1.6142 -1.5713 -1.5821
C -1.6234 -1.5672 -1.5781
C -1.6264 -1.5633 -1.5765
C -1.6274 -1.5728 -1.5787
C -1.6293 -1.5701 -1.5772
C -1.6312 -1.5763 -1.5803
C -1.6264 -1.5707 -1.5859
C -1.6344 -1.5758 -1.5695
C -1.6352 -1.5858 -1.5863
C -1.6232 -1.5778 -1.5795
C -1.6207 -1.5798 -1.5813
C -1.6204 -1.5642 -1.5769
C -1.6235 -1.5655 -1.5770
C -1.6156 -1.5604 -1.5758
C -1.6133 -1.5591 -1.5754
C -1.6130 -1.5593 -1.5755
C -1.6124 -1.5634 -1.5763
C -1.6126 -1.5552 -1.5781
C -1.6126 -1.5559 -1.5722
C -1.6139 -1.5501 -1.5698
C -1.6112 -1.5608 -1.5741
C -1.6098 -1.5651 -1.5764
C -1.6094 -1.5603 -1.5726
C -1.6114 -1.5581 -1.5704
C -1.6110 -1.5644 -1.5737
C -1.6077 -1.5681 -1.5652
C -1.6175 -1.5530 -1.5759
C -1.6160 -1.5460 -1.5815
C -1.6180 -1.5525 -1.5685
C -1.6223 -1.5512 -1.5774
C -1.6106 -1.5768 -1.5818
C -1.6065 -1.5825 -1.5835
C -1.6049 -1.5585 -1.5726
C -1.6037 -1.5616 -1.5754
C -1.6019 -1.5517 -1.5721
C -1.6024 -1.5486 -1.5708
C -1.5968 -1.5478 -1.5714
C -1.5947 -1.5464 -1.5720
C -1.5988 -1.5425 -1.5673
C -1.6028 -1.5447 -1.5666
C -1.5955 -1.5387 -1.5676
C -1.6013 -1.5385 -1.5658
C -1.6076 -1.5388 -1.5699
C -1.6121 -1.5421 -1.5755
C -1.6097 -1.5349 -1.5644
C -1.6151 -1.5346 -1.5658
C -1.6024 -1.5316 -1.5569
C -1.6001 -1.5268 -1.5502
C -1.6034 -1.5251 -1.5503
C -1.5921 -1.5244 -1.5438
C -1.5889 -1.5206 -1.5386
C -1.5875 -1.5262 -1.5437
C -1.5808 -1.5230 -1.5381
C -1.5900 -1.5311 -1.5511
C -1.5855 -1.5324 -1.5506
C -1.5975 -1.5337 -1.5579
C -1.5927 -1.5505 -1.5730
C -1.5944 -1.5550 -1.5729
C -1.5870 -1.5477 -1.5743
C -1.5865 -1.5443 -1.5749
C -1.5832 -1.5500 -1.5764
C -1.5790 -1.5477 -1.5779
C -1.5825 -1.5497 -1.5757
C -1.5857 -1.5570 -1.5755
C -1.5882 -1.5597 -1.5760
C -1.5858 -1.5598 -1.5747
138
REAL frame=5
C -1.5984 -1.5666 -1.5724
C -1.6013 -1.5681 -1.5719
C -1.5997 -1.5611 -1.5744
C -1.5959 -1.5670 -1.5719
C -1.5961 -1.5697 -1.5744
C -1.5912 -1.5679 -1.5755
C -1.5963 -1.5748 -1.5758
C -1.5987 -1.5701 -1.5736
C -1.6037 -1.5734 -1.5726
C -1.5961 -1.5664 -1.5761
C -1.5914 -1.5617 -1.5769
C -1.5974 -1.5639 -1.5767
C -1.5988 -1.5609 -1.5745
C -1.5926 -1.5597 -1.5797
C -1.5903 -1.5553 -1.5777
C -1.5904 -1.5637 -1.5810
C -1.5948 -1.5570 -1.5829
C -1.5945 -1.5632 -1.5869
C -1.5913 -1.5703 -1.5877
C -1.5973 -1.5607 -1.5904
C -1.5976 -1.5653 -1.5935
C -1.6006 -1.5511 -1.5895
C -1.6035 -1.5485 -1.5927
C -1.5942 -1.5469 -1.5868
C -1.6010 -1.5452 -1.5851
C -1.6035 -1.5380 -1.5840
C -1.5967 -1.5481 -1.5824
C -1.5966 -1.5441 -1.5792
C -1.6002 -1.5689 -1.5786
C -1.6026 -1.5745 -1.5784
C -1.5993 -1.5671 -1.5811
C -1.5961 -1.5622 -1.5816
C -1.6002 -1.5717 -1.5854
C -1.5965 -1.5728 -1.5889
C -1.6046 -1.5770 -1.5870
C -1.6024 -1.5790 -1.5869
C -1.6073 -1.5810 -1.5903
C -1.6100 -1.5753 -1.5837
C -1.6061 -1.5680 -1.5851
C -1.6183 -1.5825 -1.5794
C -1.6010 -1.5697 -1.5831
C -1.6043 -1.5671 -1.5806
C -1.5977 -1.5702 -1.5844
C -1.5953 -1.5741 -1.5879
C -1.5975 -1.5768 -1.5898
C -1.5921 -1.5745 -1.5868
C -1.5941 -1.5742 -1.5885
C -1.5975 -1.5760 -1.5897
C -1.5904 -1.5757 -1.5895
C -1.5944 -1.5694 -1.5848
C -1.5938 -1.5692 -1.5853
C -1.5911 -1.5701 -1.5832
C -1.5989 -1.5675 -1.5833
C -1.5984 -1.5640 -1.5798
C -1.6055 -1.5685 -1.5835
C -1.6075 -1.5666 -1.5831
C -1.6078 -1.5712 -1.5820
C -1.6039 -1.5710 -1.5798
C -1.6149 -1.5729 -1.5827
C -1.6168 -1.5711 -1.5824
C -1.6157 -1.5802 -1.5870
C -1.6133 -1.5831 -1.5885
C -1.6206 -1.5816 -1.5858
C -1.6119 -1.5813 -1.5902
C -1.6065 -1.5813 -1.5921
C -1.6142 -1.5872 -1.5915
C -1.6123 -1.5771 -1.5883
C -1.6075 -1.5750 -1.5900
C -1.6147 -1.5752 -1.5839
C -1.6211 -1.5697 -1.5805
C -1.6274 -1.5676 -1.5779
C -1.6197 -1.5695 -1.5800
C -1.6146 -1.5713 -1.5821
C -1.6236 -1.5671 -1.5782
C -1.6265 -1.5634 -1.5759
C -1.6273 -1.5728 -1.5788
C -1.6295 -1.5701 -1.5772
C -1.6313 -1.5763 -1.5803
C -1.6261 -1.5707 -1.5853
C -1.6339 -1.5758 -1.5688
C -1.6356 -1.5856 -1.5863
C -1.6232 -1.5778 -1.5796
C -1.6204 -1.5796 -1.5813
C -1.6206 -1.5641 -1.5769
C -1.6235 -1.5654 -1.5768
C -1.6158 -1.5604 -1.5759
C -1.6135 -1.5593 -1.5757
C -1.6130 -1.5593 -1.5756
C -1.6124 -1.5634 -1.5764
C -1.6122 -1.5557 -1.5783
C -1.6127 -1.5560 -1.5723
C -1.6140 -1.5500 -1.5697
C -1.6112 -1.5609 -1.5741
C -1.6102 -1.5650 -1.5763
C -1.6095 -1.5603 -1.5725
C -1.6113 -1.5581 -1.5704
C -1.6108 -1.5643 -1.5738
C -1.6076 -1.5680 -1.5653
C -1.6173 -1.5529 -1.5759
C -1.6157 -1.5461 -1.5822
C -1.6182 -1.5526 -1.5684
C -1.6223 -1.5509 -1.5775
C -1.6104 -1.5767 -1.5818
C -1.6069 -1.5827 -1.5838
C -1.6048 -1.5583 -1.5727
C -1.6036 -1.5615 -1.5753
C -1.6019 -1.5517 -1.5721
C -1.6022 -1.5484 -1.5710
C -1.5968 -1.5479 -1.5716
C -1.5947 -1.5464 -1.5720
C -1.5988 -1.5425 -1.5674
C -1.6024 -1.5454 -1.5668
C -1.5955 -1.5385 -1.5674
C -1.6013 -1.5385 -1.5657
C -1.6077 -1.5389 -1.5696
C -1.6123 -1.5427 -1.5752
C -1.6097 -1.5347 -1.5644
C -1.6152 -1.5346 -1.5660
C -1.6024 -1.5316 -1.5569
C -1.6001 -1.5268 -1.5503
C -1.6033 -1.5251 -1.5508
C -1.5922 -1.5243 -1.5437
C -1.5889 -1.5204 -1.5386
C -1.5875 -1.5263 -1.5437
C -1.5811 -1.5228 -1.5380
C -1.5901 -1.5312 -1.5510
C -1.5848 -1.5321 -1.5497
C -1.5975 -1.5337 -1.5580
C -1.5928 -1.5505 -1.5729
C -1.5944 -1.5550 -1.5729
C -1.5871 -1.5478 -1.5743
C -1.5869 -1.5442 -1.5751
C -1.5833 -1.5499 -1.5764
C -1.5790 -1.5481 -1.5776
C -1.5828 -1.5499 -1.5759
C -1.5857 -1.5570 -1.5756
C -1.5882 -1.5598 -1.5759
C -1.5857 -1.5599 -1.5745
138
REAL frame=6
C -1.5984 -1.5665 -1.5725
C -1.6012 -1.5678 -1.5719
C -1.5997 -1.5610 -1.5744
C -1.5958 -1.5672 -1.5727
C -1.5962 -1.5697 -1.5745
C -1.5912 -1.5674 -1.5758
C -1.5964 -1.5748 -1.5755
C -1.5988 -1.5700 -1.5736
C -1.6038 -1.5734 -1.5726
C -1.5961 -1.5664 -1.5762
C -1.5916 -1.5623 -1.5771
C -1.5973 -1.5640 -1.5766
C -1.5987 -1.5608 -1.5745
C -1.5927 -1.5596 -1.5796
C -1.5898 -1.5546 -1.5782
C -1.5906 -1.5634 -1.5811
C -1.5949 -1.5571 -1.5828
C -1.5945 -1.5632 -1.5869
C -1.5918 -1.5701 -1.5879
C -1.5973 -1.5606 -1.5906
C -1.5977 -1.5650 -1.5936
C -1.6007 -1.5512 -1.5894
C -1.6036 -1.5486 -1.5928
C -1.5943 -1.5471 -1.5866
C -1.6011 -1.5450 -1.5851
C -1.6035 -1.5378 -1.5842
C -1.5968 -1.5482 -1.5825
C -1.5960 -1.5442 -1.5795
C -1.6001 -1.5688 -1.5785
C -1.6028 -1.5744 -1.5785
C -1.5994 -1.5673 -1.5811
C -1.5963 -1.5626 -1.5812
C -1.6002 -1.5717 -1.5853
C -1.5961 -1.5727 -1.5888
C -1.6045 -1.5769 -1.5869
C -1.6020 -1.5789 -1.5871
C -1.6067 -1.5812 -1.5906
C -1.6101 -1.5753 -1.5836
C -1.6061 -1.5681 -1.5852
C -1.6183 -1.5825 -1.5795
C -1.6009 -1.5697 -1.5830
C -1.6042 -1.5671 -1.5805
C -1.5978 -1.5702 -1.5845
C -1.5954 -1.5741 -1.5879
C -1.5976 -1.5770 -1.5904
C -1.5923 -1.5747 -1.5863
C -1.5942 -1.5740 -1.5886
C -1.5975 -1.5757 -1.5901
C -1.5907 -1.5758 -1.5894
C -1.5944 -1.5696 -1.5848
C -1.5938 -1.5693 -1.5853
C -1.5909 -1.5700 -1.5830
C -1.5988 -1.5675 -1.5833
C -1.5982 -1.5640 -1.5799
C -1.6055 -1.5685 -1.5835
C -1.6075 -1.5664 -1.5832
C -1.6077 -1.5712 -1.5820
C -1.6035 -1.5708 -1.5796
C -1.6151 -1.5728 -1.5827
C -1.6169 -1.5709 -1.5820
C -1.6157 -1.5802 -1.5868
C -1.6133 -1.5832 -1.5886
C -1.6209 -1.5818 -1.5864
C -1.6119 -1.5815 -1.5902
C -1.6061 -1.5812 -1.5919
C -1.6142 -1.5872 -1.5916
C -1.6123 -1.5768 -1.5882
C -1.6075 -1.5751 -1.5901
C -1.6148 -1.5752 -1.5839
C -1.6212 -1.5697 -1.5803
C -1.6275 -1.5676 -1.5780
C -1.6197 -1.5694 -1.5801
C -1.6151 -1.5716 -1.5818
C -1.6237 -1.5670 -1.5782
C -1.6266 -1.5634 -1.5755
C -1.6271 -1.5727 -1.5788
C -1.6298 -1.5699 -1.5772
C -1.6315 -1.5763 -1.5803
C -1.6259 -1.5708 -1.5846
C -1.6337 -1.5756 -1.5684
C -1.6361 -1.5854 -1.5863
C -1.6232 -1.5778 -1.5797
C -1.6202 -1.5797 -1.5814
C -1.6209 -1.5642 -1.5767
C -1.6235 -1.5653 -1.5767
C -1.6158 -1.5604 -1.5759
C -1.6138 -1.5596 -1.5759
C -1.6130 -1.5593 -1.5756
C -1.6123 -1.5634 -1.5765
C -1.6116 -1.5563 -1.5783
C -1.6129 -1.5561 -1.5724
C -1.6140 -1.5499 -1.5697
C -1.6111 -1.5610 -1.5740
C -1.6105 -1.5649 -1.5760
C -1.6095 -1.5604 -1.5725
C -1.6111 -1.5581 -1.5704
C -1.6107 -1.5644 -1.5739
C -1.6074 -1.5680 -1.5653
C -1.6172 -1.5528 -1.5759
C -1.6155 -1.5462 -1.5829
C -1.6183 -1.5528 -1.5683
C -1.6222 -1.5507 -1.5777
C -1.6103 -1.5766 -1.5818
C -1.6071 -1.5829 -1.5838
C -1.6047 -1.5581 -1.5729
C -1.6035 -1.5613 -1.5752
C -1.6019 -1.5517 -1.5720
C -1.6024 -1.5483 -1.5712
C -1.5968 -1.5480 -1.5717
C -1.5946 -1.5463 -1.5720
C -1.5988 -1.5425 -1.5676
C -1.6019 -1.5459 -1.5668
C -1.5956 -1.5383 -1.5672
C -1.6012 -1.5385 -1.5657
C -1.6078 -1.5389 -1.5693
C -1.6125 -1.5429 -1.5748
C -1.6097 -1.5346 -1.5643
C -1.6153 -1.5346 -1.5661
C -1.6024 -1.5316 -1.5570
C -1.6002 -1.5267 -1.5503
C -1.6032 -1.5251 -1.5511
C -1.5923 -1.5242 -1.5436
C -1.5889 -1.5203 -1.5385
C -1.5875 -1.5263 -1.5438
C -1.5814 -1.5230 -1.5380
C -1.5901 -1.5312 -1.5509
C -1.5843 -1.5318 -1.5493
C -1.5975 -1.5337 -1.5581
C -1.5928 -1.5506 -1.5727
C -1.5943 -1.5550 -1.5730
C -1.5871 -1.5479 -1.5743
C -1.5872 -1.5442 -1.5753
C -1.5833 -1.5499 -1.5763
C -1.5791 -1.5484 -1.5774
C -1.5830 -1.5500 -1.5760
C -1.5856 -1.5569 -1.5757
C -1.5882 -1.5599 -1.5759
C -1.5857 -1.5599 -1.5744
138
REAL frame=7
C -1.5983 -1.5664 -1.5726
C -1.6011 -1.5678 -1.5717
C -1.5996 -1.5609 -1.5740
C -1.5957 -1.5672 -1.5733
C -1.5963 -1.5697 -1.5746
C -1.5912 -1.5672 -1.5760
C -1.5965 -1.5748 -1.5753
C -1.5989 -1.5699 -1.5737
C -1.6038 -1.5734 -1.5726
C -1.5960 -1.5663 -1.5762
C -1.5920 -1.5630 -1.5772
C -1.5973 -1.5640 -1.5765
C -1.5986 -1.5610 -1.5743
C -1.5928 -1.5595 -1.5795
C -1.5894 -1.5539 -1.5787
C -1.5908 -1.5631 -1.5813
C -1.5949 -1.5571 -1.5827
C -1.5945 -1.5632 -1.5870
C -1.5924 -1.5699 -1.5879
C -1.5972 -1.5605 -1.5906
C -1.5978 -1.5648 -1.5936
C -1.6008 -1.5513 -1.5894
C -1.6037 -1.5487 -1.5928
C -1.5945 -1.5472 -1.5863
C -1.6011 -1.5448 -1.5851
C -1.6035 -1.5375 -1.5843
C -1.5970 -1.5483 -1.5825
C -1.5954 -1.5440 -1.5797
C -1.6001 -1.5689 -1.5785
C -1.6029 -1.5743 -1.5785
C -1.5995 -1.5674 -1.5812
C -1.5967 -1.5628 -1.5810
C -1.6002 -1.5717 -1.5852
C -1.5959 -1.5727 -1.5887
C -1.6044 -1.5769 -1.5867
C -1.6016 -1.5788 -1.5871
C -1.6060 -1.5814 -1.5910
C -1.6101 -1.5752 -1.5835
C -1.6061 -1.5681 -1.5853
C -1.6183 -1.5825 -1.5795
C -1.6007 -1.5697 -1.5831
C -1.6041 -1.5671 -1.5803
C -1.5979 -1.5703 -1.5847
C -1.5954 -1.5742 -1.5879
C -1.5977 -1.5769 -1.5908
C -1.5925 -1.5748 -1.5861
C -1.5943 -1.5738 -1.5886
C -1.5975 -1.5754 -1.5905
C -1.5908 -1.5759 -1.5894
C -1.5943 -1.5698 -1.5848
C -1.5939 -1.5695 -1.5852
C -1.5907 -1.5698 -1.5828
C -1.5987 -1.5674 -1.5833
C -1.5979 -1.5639 -1.5802
C -1.6056 -1.5686 -1.5834
C -1.6076 -1.5662 -1.5832
C -1.6077 -1.5712 -1.5820
C -1.6031 -1.5706 -1.5795
C -1.6153 -1.5728 -1.5827
C -1.6169 -1.5707 -1.5816
C -1.6156 -1.5802 -1.5866
C -1.6135 -1.5833 -1.5887
C -1.6212 -1.5821 -1.5867
C -1.6119 -1.5816 -1.5902
C -1.6058 -1.5811 -1.5918
C -1.6142 -1.5872 -1.5918
C -1.6123 -1.5766 -1.5882
C -1.6075 -1.5751 -1.5900
C -1.6150 -1.5751 -1.5839
C -1.6212 -1.5696 -1.5802
C -1.6275 -1.5676 -1.5781
C -1.6196 -1.5693 -1.5802
C -1.6156 -1.5718 -1.5813
C -1.6240 -1.5669 -1.5781
C -1.6268 -1.5634 -1.5753
C -1.6269 -1.5726 -1.5788
C -1.6301 -1.5696 -1.5774
C -1.6315 -1.5763 -1.5803
C -1.6259 -1.5708 -1.5840
C -1.6337 -1.5752 -1.5683
C -1.6366 -1.5852 -1.5861
C -1.6231 -1.5778 -1.5798
C -1.6201 -1.5802 -1.5814
C -1.6212 -1.5642 -1.5765
C -1.6234 -1.5652 -1.5766
C -1.6158 -1.5604 -1.5760
C -1.6142 -1.5598 -1.5761
C -1.6130 -1.5593 -1.5758
C -1.6122 -1.5635 -1.5764
C -1.6111 -1.5570 -1.5781
C -1.6130 -1.5562 -1.5726
C -1.6141 -1.5498 -1.5697
C -1.6111 -1.5610 -1.5738
C -1.6107 -1.5649 -1.5757
C -1.6095 -1.5604 -1.5725
C -1.6109 -1.5581 -1.5704
C -1.6105 -1.5644 -1.5738
C -1.6072 -1.5681 -1.5653
C -1.6170 -1.5527 -1.5759
C -1.6154 -1.5463 -1.5835
C -1.6184 -1.5530 -1.5683
C -1.6221 -1.5504 -1.5781
C -1.6102 -1.5765 -1.5819
C -1.6069 -1.5831 -1.5836
C -1.6047 -1.5580 -1.5732
C -1.6034 -1.5612 -1.5751
C -1.6019 -1.5517 -1.5720
C -1.6027 -1.5482 -1.5714
C -1.5968 -1.5480 -1.5718
C -1.5946 -1.5462 -1.5720
C -1.5988 -1.5425 -1.5677
C -1.6013 -1.5460 -1.5665
C -1.5956 -1.5382 -1.5672
C -1.6012 -1.5386 -1.5655
C -1.6079 -1.5389 -1.5690
C -1.6126 -1.5428 -1.5745
C -1.6097 -1.5346 -1.5642
C -1.6153 -1.5346 -1.5660
C -1.6025 -1.5315 -1.5571
C -1.6002 -1.5267 -1.5504
C -1.6031 -1.5251 -1.5512
C -1.5924 -1.5241 -1.5435
C -1.5891 -1.5202 -1.5384
C -1.5876 -1.5263 -1.5438
C -1.5816 -1.5235 -1.5381
C -1.5901 -1.5312 -1.5507
C -1.5841 -1.5318 -1.5494
C -1.5975 -1.5338 -1.5581
C -1.5928 -1.5507 -1.5725
C -1.5943 -1.5549 -1.5730
C -1.5872 -1.5480 -1.5743
C -1.5873 -1.5445 -1.5755
C -1.5833 -1.5499 -1.5762
C -1.5791 -1.5486 -1.5773
C -1.5831 -1.5499 -1.5758
C -1.5856 -1.5569 -1.5758
C -1.5882 -1.5599 -1.5760
C -1.5857 -1.5599 -1.5743
138
REAL frame=8
C -1.5983 -1.5662 -1.5728
C -1.6010 -1.5680 -1.5715
C -1.5993 -1.5611 -1.5734
C -1.5955 -1.5670 -1.5734
C -1.5963 -1.5697 -1.5747
C -1.5912 -1.5672 -1.5760
C -1.5967 -1.5747 -1.5754
C -1.5991 -1.5698 -1.5738
C -1.6039 -1.5734 -1.5725
C -1.5959 -1.5661 -1.5762
C -1.5925 -1.5638 -1.5772
C -1.5972 -1.5640 -1.5765
C -1.5986 -1.5613 -1.5739
C -1.5929 -1.5594 -1.5794
C -1.5892 -1.5533 -1.5790
C -1.5911 -1.5628 -1.5814
C -1.5949 -1.5571 -1.5828
C -1.5946 -1.5631 -1.5871
C -1.5931 -1.5697 -1.5879
C -1.5972 -1.5605 -1.5906
C -1.5977 -1.5648 -1.5936
C -1.6008 -1.5513 -1.5894
C -1.6038 -1.5488 -1.5928
C -1.5948 -1.5472 -1.5861
C -1.6011 -1.5447 -1.5851
C -1.6034 -1.5374 -1.5844
C -1.5971 -1.5483 -1.5825
C -1.5949 -1.5436 -1.5800
C -1.6001 -1.5690 -1.5785
C -1.6030 -1.5742 -1.5785
C -1.5996 -1.5675 -1.5813
C -1.5973 -1.5627 -1.5808
C -1.6002 -1.5717 -1.5850
C -1.5958 -1.5726 -1.5886
C -1.6043 -1.5769 -1.5866
C -1.6014 -1.5786 -1.5869
C -1.6052 -1.5815 -1.5913
C -1.6100 -1.5752 -1.5835
C -1.6061 -1.5681 -1.5853
C -1.6183 -1.5825 -1.5795
C -1.6005 -1.5697 -1.5832
C -1.6039 -1.5671 -1.5801
C -1.5981 -1.5705 -1.5848
C -1.5954 -1.5741 -1.5878
C -1.5978 -1.5767 -1.5910
C -1.5924 -1.5748 -1.5863
C -1.5944 -1.5737 -1.5887
C -1.5974 -1.5750 -1.5908
C -1.5907 -1.5757 -1.5894
C -1.5943 -1.5699 -1.5849
C -1.5941 -1.5696 -1.5852
C -1.5903 -1.5695 -1.5826
C -1.5986 -1.5674 -1.5832
C -1.5977 -1.5636 -1.5806
C -1.6056 -1.5685 -1.5833
C -1.6077 -1.5660 -1.5833
C -1.6077 -1.5711 -1.5820
C -1.6028 -1.5705 -1.5796
C -1.6155 -1.5727 -1.5827
C -1.6169 -1.5705 -1.5812
C -1.6156 -1.5802 -1.5865
C -1.6138 -1.5833 -1.5886
C -1.6214 -1.5825 -1.5867
C -1.6119 -1.5818 -1.5902
C -1.6056 -1.5812 -1.5918
C -1.6141 -1.5873 -1.5922
C -1.6121 -1.5765 -1.5883
C -1.6077 -1.5751 -1.5900
C -1.6151 -1.5751 -1.5840
C -1.6212 -1.5696 -1.5801
C -1.6276 -1.5676 -1.5783
C -1.6196 -1.5693 -1.5802
C -1.6160 -1.5720 -1.5810
C -1.6241 -1.5669 -1.5780
C -1.6270 -1.5633 -1.5753
C -1.6268 -1.5725 -1.5789
C -1.6302 -1.5692 -1.5775
C -1.6315 -1.5764 -1.5801
C -1.6261 -1.5707 -1.5837
C -1.6341 -1.5749 -1.5685
C -1.6370 -1.5850 -1.5859
C -1.6231 -1.5777 -1.5799
C -1.6201 -1.5810 -1.5813
C -1.6214 -1.5642 -1.5763
C -1.6233 -1.5650 -1.5765
C -1.6159 -1.5605 -1.5760
C -1.6147 -1.5600 -1.5762
C -1.6130 -1.5593 -1.5759
C -1.6122 -1.5637 -1.5763
C -1.6106 -1.5576 -1.5778
C -1.6131 -1.5563 -1.5727
C -1.6142 -1.5498 -1.5697
C -1.6110 -1.5611 -1.5737
C -1.6109 -1.5651 -1.5753
C -1.6095 -1.5604 -1.5725
C -1.6107 -1.5583 -1.5704
C -1.6104 -1.5646 -1.5737
C -1.6070 -1.5682 -1.5651
C -1.6169 -1.5526 -1.5760
C -1.6154 -1.5463 -1.5839
C -1.6183 -1.5530 -1.5683
C -1.6220 -1.5502 -1.5786
C -1.6101 -1.5764 -1.5820
C -1.6065 -1.5833 -1.5831
C -1.6047 -1.5578 -1.5735
C -1.6033 -1.5610 -1.5750
C -1.6019 -1.5517 -1.5719
C -1.6031 -1.5481 -1.5715
C -1.5969 -1.5481 -1.5718
C -1.5947 -1.5461 -1.5719
C -1.5989 -1.5425 -1.5679
C -1.6008 -1.5457 -1.5660
C -1.5957 -1.5382 -1.5673
C -1.6011 -1.5386 -1.5653
C -1.6080 -1.5389 -1.5687
C -1.6126 -1.5424 -1.5743
C -1.6096 -1.5346 -1.5642
C -1.6153 -1.5346 -1.5658
C -1.6026 -1.5315 -1.5573
C -1.6002 -1.5267 -1.5505
C -1.6031 -1.5251 -1.5511
C -1.5925 -1.5239 -1.5435
C -1.5894 -1.5201 -1.5382
C -1.5876 -1.5263 -1.5439
C -1.5818 -1.5242 -1.5384
C -1.5900 -1.5311 -1.5505
C -1.5842 -1.5319 -1.5499
C -1.5975 -1.5339 -1.5580
C -1.5928 -1.5508 -1.5724
C -1.5943 -1.5548 -1.5731
C -1.5874 -1.5481 -1.5743
C -1.5873 -1.5448 -1.5758
C -1.5832 -1.5500 -1.5761
C -1.5790 -1.5487 -1.5772
C -1.5832 -1.5497 -1.5755
C -1.5855 -1.5570 -1.5758
C -1.5883 -1.5600 -1.5761
C -1.5856 -1.5599 -1.5742
138
REAL frame=9
C -1.5983 -1.5661 -1.5730
C -1.6008 -1.5683 -1.5712
C -1.5990 -1.5614 -1.5728
C -1.5954 -1.5667 -1.5732
C -1.5964 -1.5698 -1.5747
C -1.5913 -1.5674 -1.5759
C -1.5969 -1.5745 -1.5756
C -1.5992 -1.5696 -1.5740
C -1.6039 -1.5734 -1.5725
C -1.5958 -1.5660 -1.5762
C -1.5930 -1.5644 -1.5773
C -1.5970 -1.5640 -1.5765
C -1.5987 -1.5617 -1.5735
C -1.5930 -1.5593 -1.5793
C -1.5893 -1.5530 -1.5789
C -1.5913 -1.5627 -1.5814
C -1.5950 -1.5571 -1.5829
C -1.5947 -1.5631 -1.5872
C -1.5936 -1.5695 -1.5878
C -1.5972 -1.5604 -1.5906
C -1.5975 -1.5649 -1.5937
C -1.6009 -1.5514 -1.5894
C -1.6039 -1.5490 -1.5928
C -1.5951 -1.5472 -1.5859
C -1.6011 -1.5446 -1.5851
C -1.6033 -1.5373 -1.5843
C -1.5972 -1.5483 -1.5825
C -1.5946 -1.5432 -1.5801
C -1.6001 -1.5692 -1.5786
C -1.6031 -1.5742 -1.5785
C -1.5997 -1.5676 -1.5813
C -1.5979 -1.5625 -1.5807
C -1.6001 -1.5718 -1.5849
C -1.5960 -1.5725 -1.5886
C -1.6042 -1.5769 -1.5865
C -1.6013 -1.5783 -1.5866
C -1.6046 -1.5816 -1.5914
C -1.6100 -1.5752 -1.5836
C -1.6061 -1.5682 -1.5853
C -1.6183 -1.5825 -1.5796
C -1.6004 -1.5696 -1.5834
C -1.6038 -1.5670 -1.5799
C -1.5982 -1.5707 -1.5849
C -1.5955 -1.5741 -1.5878
C -1.5979 -1.5764 -1.5909
C -1.5923 -1.5745 -1.5867
C -1.5945 -1.5736 -1.5887
C -1.5973 -1.5746 -1.5909
C -1.5906 -1.5755 -1.5895
C -1.5942 -1.5701 -1.5849
C -1.5943 -1.5697 -1.5851
C -1.5900 -1.5691 -1.5826
C -1.5985 -1.5675 -1.5832
C -1.5975 -1.5633 -1.5810
C -1.6056 -1.5684 -1.5832
C -1.6078 -1.5658 -1.5833
C -1.6077 -1.5711 -1.5820
C -1.6026 -1.5704 -1.5797
C -1.6156 -1.5727 -1.5826
C -1.6169 -1.5704 -1.5810
C -1.6156 -1.5803 -1.5865
C -1.6142 -1.5832 -1.5884
C -1.6215 -1.5828 -1.5864
C -1.6118 -1.5819 -1.5901
C -1.6056 -1.5813 -1.5918
C -1.6139 -1.5874 -1.5926
C -1.6119 -1.5765 -1.5884
C -1.6078 -1.5751 -1.5899
C -1.6152 -1.5750 -1.5840
C -1.6212 -1.5696 -1.5801
C -1.6277 -1.5675 -1.5784
C -1.6195 -1.5694 -1.5802
C -1.6163 -1.5722 -1.5809
C -1.6243 -1.5668 -1.5780
C -1.6274 -1.5631 -1.5755
C -1.6267 -1.5724 -1.5790
C -1.6301 -1.5689 -1.5777
C -1.6315 -1.5764 -1.5800
C -1.6264 -1.5706 -1.5836
C -1.6346 -1.5746 -1.5689
C -1.6372 -1.5849 -1.5856
C -1.6231 -1.5777 -1.5800
C -1.6201 -1.5818 -1.5812
C -1.6216 -1.5642 -1.5762
C -1.6232 -1.5649 -1.5764
C -1.6159 -1.5605 -1.5760
C -1.6151 -1.5602 -1.5763
C -1.6130 -1.5593 -1.5759
C -1.6122 -1.5638 -1.5762
C -1.6103 -1.5581 -1.5775
C -1.6131 -1.5563 -1.5728
C -1.6143 -1.5498 -1.5698
C -1.6110 -1.5612 -1.5735
C -1.6110 -1.5653 -1.5750
C -1.6094 -1.5604 -1.5726
C -1.6105 -1.5584 -1.5704
C -1.6103 -1.5648 -1.5736
C -1.6068 -1.5683 -1.5649
C -1.6167 -1.5525 -1.5760
C -1.6153 -1.5462 -1.5840
C -1.6181 -1.5528 -1.5684
C -1.6219 -1.5500 -1.5790
C -1.6101 -1.5762 -1.5822
C -1.6060 -1.5835 -1.5824
C -1.6047 -1.5576 -1.5738
C -1.6031 -1.5609 -1.5748
C -1.6019 -1.5517 -1.5719
C -1.6034 -1.5482 -1.5715
C -1.5970 -1.5481 -1.5718
C -1.5947 -1.5462 -1.5719
C -1.5988 -1.5424 -1.5681
C -1.6004 -1.5453 -1.5655
C -1.5956 -1.5383 -1.5678
C -1.6011 -1.5387 -1.5651
C -1.6082 -1.5389 -1.5685
C -1.6127 -1.5418 -1.5742
C -1.6096 -1.5347 -1.5642
C -1.6153 -1.5346 -1.5655
C -1.6026 -1.5314 -1.5575
C -1.6002 -1.5268 -1.5506
C -1.6032 -1.5251 -1.5509
C -1.5926 -1.5238 -1.5435
C -1.5897 -1.5201 -1.5381
C -1.5876 -1.5262 -1.5439
C -1.5819 -1.5248 -1.5387
C -1.5900 -1.5311 -1.5503
C -1.5845 -1.5321 -1.5506
C -1.5975 -1.5340 -1.5578
C -1.5928 -1.5509 -1.5724
C -1.5942 -1.5548 -1.5731
C -1.5875 -1.5482 -1.5742
C -1.5873 -1.5452 -1.5759
C -1.5832 -1.5501 -1.5760
C -1.5790 -1.5485 -1.5772
C -1.5831 -1.5493 -1.5750
C -1.5855 -1.5572 -1.5757
C -1.5883 -1.5599 -1.5762
C -1.5856 -1.5598 -1.5741
138
REAL frame=10
C -1.5982 -1.5660 -1.5732
C -1.6006 -1.5688 -1.5711
C -1.5987 -1.5617 -1.5724
C -1.5953 -1.5663 -1.5728
C -1.5964 -1.5698 -1.5747
C -1.5914 -1.5679 -1.5757
C -1.5971 -1.5743 -1.5759
C -1.5993 -1.5695 -1.5742
C -1.6040 -1.5734 -1.5724
C -1.5958 -1.5660 -1.5762
C -1.5933 -1.5646 -1.5776
C -1.5969 -1.5640 -1.5765
C -1.5988 -1.5621 -1.5731
C -1.5931 -1.5592 -1.5792
C -1.5895 -1.5529 -1.5786
C -1.5915 -1.5627 -1.5812
C -1.5951 -1.5571 -1.5830
C -1.5947 -1.5630 -1.5873
C -1.5941 -1.5693 -1.5878
C -1.5972 -1.5604 -1.5906
C -1.5973 -1.5651 -1.5936
C -1.6010 -1.5514 -1.5894
C -1.6040 -1.5491 -1.5928
C -1.5954 -1.5470 -1.5858
C -1.6011 -1.5445 -1.5851
C -1.6032 -1.5374 -1.5843
C -1.5972 -1.5481 -1.5825
C -1.5946 -1.5430 -1.5801
C -1.6002 -1.5693 -1.5787
C -1.6032 -1.5741 -1.5785
C -1.5997 -1.5676 -1.5813
C -1.5986 -1.5623 -1.5805
C -1.6000 -1.5718 -1.5848
C -1.5963 -1.5725 -1.5886
C -1.6041 -1.5769 -1.5864
C -1.6014 -1.5780 -1.5861
C -1.6043 -1.5817 -1.5914
C -1.6099 -1.5753 -1.5837
C -1.6061 -1.5681 -1.5853
C -1.6182 -1.5824 -1.5796
C -1.6002 -1.5696 -1.5835
C -1.6037 -1.5670 -1.5798
C -1.5983 -1.5709 -1.5850
C -1.5955 -1.5740 -1.5878
C -1.5980 -1.5761 -1.5905
C -1.5921 -1.5742 -1.5874
C -1.5946 -1.5736 -1.5887
C -1.5973 -1.5743 -1.5908
C -1.5904 -1.5751 -1.5896
C -1.5941 -1.5703 -1.5849
C -1.5945 -1.5699 -1.5850
C -1.5898 -1.5688 -1.5828
C -1.5985 -1.5676 -1.5831
C -1.5974 -1.5630 -1.5814
C -1.6056 -1.5682 -1.5832
C -1.6079 -1.5658 -1.5834
C -1.6078 -1.5709 -1.5820
C -1.6027 -1.5704 -1.5798
C -1.6156 -1.5726 -1.5824
C -1.6170 -1.5703 -1.5810
C -1.6157 -1.5803 -1.5866
C -1.6145 -1.5831 -1.5881
C -1.6214 -1.5830 -1.5859
C -1.6118 -1.5820 -1.5900
C -1.6057 -1.5815 -1.5918
C -1.6137 -1.5877 -1.5930
C -1.6118 -1.5767 -1.5884
C -1.6079 -1.5750 -1.5898
C -1.6153 -1.5748 -1.5840
C -1.6213 -1.5696 -1.5802
C -1.6277 -1.5674 -1.5785
C -1.6195 -1.5695 -1.5801
C -1.6165 -1.5722 -1.5810
C -1.6243 -1.5668 -1.5779
C -1.6277 -1.5629 -1.5758
C -1.6269 -1.5723 -1.5791
C -1.6298 -1.5686 -1.5778
C -1.6315 -1.5763 -1.5797
C -1.6269 -1.5704 -1.5838
C -1.6351 -1.5744 -1.5694
C -1.6372 -1.5848 -1.5854
C -1.6230 -1.5777 -1.5801
C -1.6202 -1.5825 -1.5811
C -1.6216 -1.5642 -1.5762
C -1.6231 -1.5648 -1.5764
C -1.6161 -1.5605 -1.5759
C -1.6153 -1.5604 -1.5763
C -1.6130 -1.5593 -1.5760
C -1.6124 -1.5640 -1.5762
C -1.6103 -1.5582 -1.5774
C -1.6131 -1.5562 -1.5728
C -1.6144 -1.5498 -1.5699
C -1.6109 -1.5612 -1.5734
C -1.6110 -1.5655 -1.5748
C -1.6093 -1.5604 -1.5726
C -1.6104 -1.5585 -1.5703
C -1.6102 -1.5650 -1.5734
C -1.6067 -1.5685 -1.5647
C -1.6166 -1.5524 -1.5761
C -1.6153 -1.5461 -1.5839
C -1.6180 -1.5525 -1.5685
C -1.6217 -1.5499 -1.5794
C -1.6101 -1.5761 -1.5823
C -1.6056 -1.5836 -1.5817
C -1.6046 -1.5574 -1.5739
C -1.6031 -1.5608 -1.5748
C -1.6019 -1.5517 -1.5719
C -1.6035 -1.5483 -1.5713
C -1.5970 -1.5481 -1.5718
C -1.5948 -1.5463 -1.5720
C -1.5988 -1.5424 -1.5682
C -1.6002 -1.5447 -1.5652
C -1.5955 -1.5384 -1.5685
C -1.6011 -1.5388 -1.5650
C -1.6083 -1.5389 -1.5683
C -1.6127 -1.5412 -1.5741
C -1.6095 -1.5348 -1.5642
C -1.6153 -1.5346 -1.5653
C -1.6027 -1.5315 -1.5576
C -1.6002 -1.5268 -1.5506
C -1.6033 -1.5251 -1.5506
C -1.5927 -1.5238 -1.5434
C -1.5902 -1.5202 -1.5379
C -1.5877 -1.5261 -1.5439
C -1.5820 -1.5252 -1.5390
C -1.5900 -1.5310 -1.5503
C -1.5849 -1.5323 -1.5512
C -1.5974 -1.5340 -1.5575
C -1.5927 -1.5510 -1.5724
C -1.5942 -1.5547 -1.5731
C -1.5877 -1.5483 -1.5742
C -1.5872 -1.5455 -1.5760
C -1.5832 -1.5503 -1.5758
C -1.5789 -1.5482 -1.5772
C -1.5830 -1.5490 -1.5745
C -1.5855 -1.5573 -1.5756
C -1.5884 -1.5599 -1.5764
C -1.5856 -1.5598 -1.5741
138
REAL frame=11
C -1.5992 -1.5669 -1.5744
C -1.6016 -1.5702 -1.5722
C -1.5995 -1.5629 -1.5735
C -1.5963 -1.5670 -1.5735
C -1.5975 -1.5709 -1.5759
C -1.5927 -1.5696 -1.5765
C -1.5983 -1.5752 -1.5772
C -1.6004 -1.5705 -1.5756
C -1.6051 -1.5744 -1.5735
C -1.5969 -1.5670 -1.5772
C -1.5943 -1.5656 -1.5791
C -1.5978 -1.5651 -1.5776
C -1.5999 -1.5635 -1.5739
C -1.5942 -1.5602 -1.5803
C -1.5911 -1.5543 -1.5790
C -1.5926 -1.5638 -1.5820
C -1.5962 -1.5582 -1.5843
C -1.5959 -1.5641 -1.5885
C -1.5955 -1.5703 -1.5888
C -1.5983 -1.5616 -1.5915
C -1.5982 -1.5663 -1.5947
C -1.6022 -1.5525 -1.5905
C -1.6052 -1.5504 -1.5939
C -1.5969 -1.5479 -1.5867
C -1.6022 -1.5457 -1.5862
C -1.6043 -1.5386 -1.5853
C -1.5983 -1.5489 -1.5835
C -1.5960 -1.5439 -1.5811
C -1.6013 -1.5705 -1.5798
C -1.6043 -1.5752 -1.5795
C -1.6007 -1.5687 -1.5823
C -1.6003 -1.5632 -1.5815
C -1.6009 -1.5728 -1.5858
C -1.5977 -1.5736 -1.5897
C -1.6050 -1.5780 -1.5875
C -1.6026 -1.5789 -1.5867
C -1.6053 -1.5827 -1.5923
C -1.6108 -1.5765 -1.5849
C -1.6072 -1.5692 -1.5863
C -1.6192 -1.5835 -1.5808
C -1.6012 -1.5706 -1.5847
C -1.6045 -1.5680 -1.5807
C -1.5994 -1.5721 -1.5861
C -1.5967 -1.5750 -1.5890
C -1.5992 -1.5769 -1.5910
C -1.5930 -1.5748 -1.5892
C -1.5957 -1.5748 -1.5897
C -1.5983 -1.5752 -1.5916
C -1.5914 -1.5758 -1.5908
C -1.5950 -1.5715 -1.5859
C -1.5958 -1.5711 -1.5859
C -1.5907 -1.5698 -1.5841
C -1.5996 -1.5689 -1.5842
C -1.5985 -1.5641 -1.5827
C -1.6066 -1.5691 -1.5842
C -1.6091 -1.5669 -1.5844
C -1.6089 -1.5719 -1.5831
C -1.6039 -1.5715 -1.5810
C -1.6166 -1.5737 -1.5834
C -1.6182 -1.5715 -1.5822
C -1.6168 -1.5815 -1.5878
C -1.6157 -1.5841 -1.5889
C -1.6223 -1.5842 -1.5863
C -1.6127 -1.5832 -1.5910
C -1.6069 -1.5828 -1.5928
C -1.6145 -1.5891 -1.5942
C -1.6127 -1.5780 -1.5894
C -1.6090 -1.5761 -1.5908
C -1.6164 -1.5758 -1.5852
C -1.6223 -1.5708 -1.5815
C -1.6289 -1.5684 -1.5798
C -1.6206 -1.5708 -1.5810
C -1.6177 -1.5733 -1.5824
C -1.6253 -1.5679 -1.5789
C -1.6290 -1.5639 -1.5773
C -1.6281 -1.5733 -1.5804
C -1.6304 -1.5695 -1.5791
C -1.6325 -1.5774 -1.5807
C -1.6283 -1.5714 -1.5853
C -1.6365 -1.5756 -1.5709
C -1.6380 -1.5860 -1.5864
C -1.6240 -1.5788 -1.5814
C -1.6213 -1.5841 -1.5821
C -1.6226 -1.5653 -1.5774
C -1.6241 -1.5659 -1.5774
C -1.6173 -1.5617 -1.5769
C -1.6164 -1.5618 -1.5773
C -1.6140 -1.5605 -1.5772
C -1.6136 -1.5653 -1.5773
C -1.6115 -1.5591 -1.5786
C -1.6141 -1.5573 -1.5740
C -1.6156 -1.5509 -1.5712
C -1.6120 -1.5623 -1.5745
C -1.6119 -1.5669 -1.5758
C -1.6101 -1.5615 -1.5738
C -1.6113 -1.5598 -1.5714
C -1.6112 -1.5664 -1.5743
C -1.6077 -1.5699 -1.5656
C -1.6175 -1.5534 -1.5774
C -1.6161 -1.5469 -1.5847
C -1.6188 -1.5532 -1.5698
C -1.6226 -1.5510 -1.5808
C -1.6110 -1.5771 -1.5836
C -1.6063 -1.5847 -1.5825
C -1.6055 -1.5583 -1.5751
C -1.6040 -1.5619 -1.5759
C -1.6031 -1.5528 -1.5732
C -1.6045 -1.5497 -1.5722
C -1.5982 -1.5492 -1.5728
C -1.5961 -1.5476 -1.5733
C -1.5997 -1.5434 -1.5694
C -1.6012 -1.5454 -1.5662
C -1.5964 -1.5395 -1.5706
C -1.6022 -1.5400 -1.5660
C -1.6095 -1.5400 -1.5694
C -1.6138 -1.5419 -1.5752
C -1.6105 -1.5361 -1.5654
C -1.6163 -1.5358 -1.5664
C -1.6038 -1.5327 -1.5588
C -1.6012 -1.5279 -1.5519
C -1.6046 -1.5262 -1.5515
C -1.5938 -1.5249 -1.5447
C -1.5917 -1.5213 -1.5390
C -1.5888 -1.5271 -1.5450
C -1.5830 -1.5264 -1.5402
C -1.5910 -1.5321 -1.5516
C -1.5866 -1.5335 -1.5526
C -1.5985 -1.5351 -1.5584
C -1.5937 -1.5520 -1.5735
C -1.5953 -1.5557 -1.5742
C -1.5888 -1.5495 -1.5754
C -1.5883 -1.5468 -1.5770
C -1.5842 -1.5516 -1.5768
C -1.5799 -1.5490 -1.5783
C -1.5837 -1.5498 -1.5752
C -1.5865 -1.5585 -1.5767
C -1.5894 -1.5610 -1.5776
C -1.5866 -1.5608 -1.5751
138
REAL frame=12
C -1.5991 -1.5669 -1.5745
C -1.6016 -1.5704 -1.5723
C -1.5993 -1.5628 -1.5739
C -1.5963 -1.5668 -1.5733
C -1.5975 -1.5709 -1.5760
C -1.5929 -1.5703 -1.5763
C -1.5985 -1.5750 -1.5774
C -1.6003 -1.5705 -1.5758
C -1.6053 -1.5744 -1.5734
C -1.5969 -1.5669 -1.5771
C -1.5942 -1.5653 -1.5795
C -1.5978 -1.5651 -1.5776
C -1.5999 -1.5637 -1.5738
C -1.5942 -1.5601 -1.5803
C -1.5916 -1.5547 -1.5784
C -1.5925 -1.5641 -1.5817
C -1.5963 -1.5581 -1.5845
C -1.5961 -1.5641 -1.5885
C -1.5957 -1.5702 -1.5889
C -1.5983 -1.5617 -1.5915
C -1.5980 -1.5665 -1.5947
C -1.6023 -1.5525 -1.5905
C -1.6052 -1.5505 -1.5939
C -1.5973 -1.5477 -1.5866
C -1.6022 -1.5458 -1.5862
C -1.6042 -1.5387 -1.5853
C -1.5983 -1.5487 -1.5835
C -1.5965 -1.5439 -1.5808
C -1.6013 -1.5706 -1.5798
C -1.6044 -1.5752 -1.5795
C -1.6007 -1.5686 -1.5823
C -1.6007 -1.5632 -1.5812
C -1.6009 -1.5728 -1.5859
C -1.5981 -1.5737 -1.5896
C -1.6048 -1.5780 -1.5874
C -1.6027 -1.5788 -1.5863
C -1.6057 -1.5827 -1.5920
C -1.6107 -1.5766 -1.5849
C -1.6072 -1.5692 -1.5863
C -1.6192 -1.5834 -1.5808
C -1.6011 -1.5706 -1.5846
C -1.6044 -1.5680 -1.5807
C -1.5995 -1.5721 -1.5861
C -1.5968 -1.5749 -1.5891
C -1.5992 -1.5767 -1.5903
C -1.5929 -1.5744 -1.5899
C -1.5957 -1.5748 -1.5896
C -1.5982 -1.5752 -1.5912
C -1.5914 -1.5754 -1.5909
C -1.5949 -1.5715 -1.5859
C -1.5959 -1.5711 -1.5858
C -1.5907 -1.5699 -1.5846
C -1.5997 -1.5691 -1.5842
C -1.5986 -1.5643 -1.5827
C -1.6065 -1.5688 -1.5842
C -1.6093 -1.5670 -1.5844
C -1.6090 -1.5717 -1.5831
C -1.6043 -1.5715 -1.5811
C -1.6166 -1.5736 -1.5833
C -1.6185 -1.5716 -1.5824
C -1.6170 -1.5816 -1.5879
C -1.6157 -1.5840 -1.5887
C -1.6221 -1.5841 -1.5859
C -1.6125 -1.5832 -1.5910
C -1.6071 -1.5831 -1.5927
C -1.6143 -1.5894 -1.5942
C -1.6127 -1.5782 -1.5892
C -1.6091 -1.5760 -1.5909
C -1.6165 -1.5757 -1.5853
C -1.6224 -1.5708 -1.5816
C -1.6289 -1.5683 -1.5799
C -1.6206 -1.5710 -1.5808
C -1.6177 -1.5733 -1.5827
C -1.6253 -1.5679 -1.5789
C -1.6292 -1.5637 -1.5776
C -1.6283 -1.5733 -1.5805
C -1.6301 -1.5695 -1.5792
C -1.6326 -1.5772 -1.5805
C -1.6286 -1.5713 -1.5857
C -1.6368 -1.5758 -1.5710
C -1.6375 -1.5862 -1.5864
C -1.6240 -1.5788 -1.5814
C -1.6213 -1.5842 -1.5822
C -1.6225 -1.5652 -1.5775
C -1.6240 -1.5658 -1.5773
C -1.6175 -1.5617 -1.5767
C -1.6164 -1.5620 -1.5773
C -1.6140 -1.5606 -1.5772
C -1.6139 -1.5653 -1.5774
C -1.6119 -1.5585 -1.5789
C -1.6141 -1.5572 -1.5739
C -1.6158 -1.5510 -1.5714
C -1.6119 -1.5623 -1.5745
C -1.6117 -1.5671 -1.5758
C -1.6100 -1.5615 -1.5738
C -1.6113 -1.5598 -1.5714
C -1.6112 -1.5666 -1.5742
C -1.6078 -1.5701 -1.5653
C -1.6174 -1.5534 -1.5776
C -1.6158 -1.5467 -1.5843
C -1.6187 -1.5528 -1.5699
C -1.6225 -1.5510 -1.5808
C -1.6109 -1.5770 -1.5838
C -1.6063 -1.5847 -1.5825
C -1.6054 -1.5581 -1.5751
C -1.6039 -1.5618 -1.5759
C -1.6032 -1.5528 -1.5733
C -1.6044 -1.5501 -1.5717
C -1.5983 -1.5492 -1.5728
C -1.5963 -1.5478 -1.5734
C -1.5996 -1.5433 -1.5694
C -1.6014 -1.5451 -1.5663
C -1.5963 -1.5395 -1.5715
C -1.6022 -1.5401 -1.5659
C -1.6097 -1.5400 -1.5693
C -1.6139 -1.5418 -1.5751
C -1.6105 -1.5362 -1.5654
C -1.6162 -1.5359 -1.5665
C -1.6038 -1.5328 -1.5587
C -1.6012 -1.5279 -1.5519
C -1.6049 -1.5263 -1.5514
C -1.5939 -1.5249 -1.5447
C -1.5923 -1.5213 -1.5390
C -1.5889 -1.5270 -1.5449
C -1.5830 -1.5260 -1.5399
C -1.5910 -1.5320 -1.5517
C -1.5872 -1.5336 -1.5526
C -1.5984 -1.5351 -1.5581
C -1.5937 -1.5520 -1.5736
C -1.5954 -1.5557 -1.5742
C -1.5888 -1.5496 -1.5754
C -1.5883 -1.5467 -1.5768
C -1.5841 -1.5517 -1.5766
C -1.5799 -1.5487 -1.5782
C -1.5834 -1.5499 -1.5748
C -1.5865 -1.5585 -1.5767
C -1.5895 -1.5610 -1.5777
C -1.5866 -1.5609 -1.5750
138
REAL frame=13
C -1.5990 -1.5668 -1.5745
C -1.6016 -1.5704 -1.5726
C -1.5992 -1.5625 -1.5746
C -1.5962 -1.5668 -1.5733
C -1.5976 -1.5709 -1.5761
C -1.5932 -1.5709 -1.5762
C -1.5986 -1.5748 -1.5773
C -1.6003 -1.5705 -1.5760
C -1.6054 -1.5743 -1.5733
C -1.5969 -1.5669 -1.5771
C -1.5939 -1.5648 -1.5798
C -1.5978 -1.5651 -1.5776
C -1.5999 -1.5635 -1.5739
C -1.5941 -1.5601 -1.5804
C -1.5922 -1.5551 -1.5779
C -1.5923 -1.5643 -1.5813
C -1.5964 -1.5579 -1.5846
C -1.5962 -1.5641 -1.5886
C -1.5957 -1.5703 -1.5891
C -1.5984 -1.5617 -1.5914
C -1.5978 -1.5666 -1.5947
C -1.6023 -1.5525 -1.5904
C -1.6053 -1.5506 -1.5939
C -1.5977 -1.5474 -1.5865
C -1.6022 -1.5459 -1.5863
C -1.6041 -1.5388 -1.5853
C -1.5984 -1.5485 -1.5835
C -1.5972 -1.5439 -1.5806
C -1.6013 -1.5705 -1.5798
C -1.6044 -1.5753 -1.5796
C -1.6007 -1.5686 -1.5822
C -1.6008 -1.5635 -1.5808
C -1.6008 -1.5727 -1.5860
C -1.5984 -1.5738 -1.5895
C -1.6047 -1.5780 -1.5874
C -1.6028 -1.5788 -1.5860
C -1.6062 -1.5825 -1.5917
C -1.6107 -1.5768 -1.5849
C -1.6073 -1.5692 -1.5862
C -1.6191 -1.5834 -1.5809
C -1.6011 -1.5705 -1.5845
C -1.6042 -1.5680 -1.5807
C -1.5994 -1.5721 -1.5860
C -1.5969 -1.5748 -1.5893
C -1.5991 -1.5767 -1.5898
C -1.5929 -1.5741 -1.5905
C -1.5956 -1.5749 -1.5895
C -1.5983 -1.5752 -1.5907
C -1.5915 -1.5752 -1.5910
C -1.5948 -1.5716 -1.5858
C -1.5959 -1.5711 -1.5857
C -1.5908 -1.5702 -1.5850
C -1.5998 -1.5692 -1.5843
C -1.5987 -1.5647 -1.5825
C -1.6063 -1.5686 -1.5841
C -1.6094 -1.5670 -1.5844
C -1.6090 -1.5715 -1.5831
C -1.6048 -1.5715 -1.5812
C -1.6165 -1.5736 -1.5832
C -1.6187 -1.5717 -1.5826
C -1.6171 -1.5816 -1.5879
C -1.6157 -1.5840 -1.5886
C -1.6221 -1.5839 -1.5857
C -1.6124 -1.5832 -1.5910
C -1.6073 -1.5834 -1.5926
C -1.6142 -1.5896 -1.5941
C -1.6127 -1.5783 -1.5889
C -1.6091 -1.5759 -1.5909
C -1.6166 -1.5757 -1.5854
C -1.6225 -1.5709 -1.5816
C -1.6290 -1.5681 -1.5801
C -1.6206 -1.5711 -1.5807
C -1.6176 -1.5733 -1.5827
C -1.6252 -1.5679 -1.5790
C -1.6292 -1.5637 -1.5779
C -1.6285 -1.5732 -1.5806
C -1.6299 -1.5697 -1.5793
C -1.6327 -1.5770 -1.5804
C -1.6287 -1.5712 -1.5861
C -1.6369 -1.5762 -1.5709
C -1.6368 -1.5865 -1.5864
C -1.6239 -1.5789 -1.5815
C -1.6213 -1.5839 -1.5824
C -1.6223 -1.5651 -1.5776
C -1.6239 -1.5657 -1.5772
C -1.6176 -1.5618 -1.5766
C -1.6164 -1.5621 -1.5772
C -1.6141 -1.5607 -1.5771
C -1.6141 -1.5654 -1.5775
C -1.6124 -1.5579 -1.5793
C -1.6141 -1.5571 -1.5740
C -1.6159 -1.5510 -1.5716
C -1.6119 -1.5622 -1.5745
C -1.6114 -1.5673 -1.5760
C -1.6099 -1.5616 -1.5737
C -1.6112 -1.5597 -1.5714
C -1.6112 -1.5668 -1.5741
C -1.6081 -1.5703 -1.5651
C -1.6173 -1.5533 -1.5777
C -1.6154 -1.5465 -1.5841
C -1.6186 -1.5525 -1.5700
C -1.6224 -1.5509 -1.5806
C -1.6108 -1.5769 -1.5838
C -1.6064 -1.5846 -1.5829
C -1.6052 -1.5579 -1.5750
C -1.6038 -1.5618 -1.5760
C -1.6033 -1.5528 -1.5733
C -1.6043 -1.5504 -1.5713
C -1.5983 -1.5492 -1.5727
C -1.5965 -1.5480 -1.5735
C -1.5994 -1.5432 -1.5694
C -1.6015 -1.5452 -1.5666
C -1.5961 -1.5393 -1.5723
C -1.6023 -1.5401 -1.5659
C -1.6099 -1.5401 -1.5693
C -1.6140 -1.5420 -1.5751
C -1.6104 -1.5362 -1.5654
C -1.6161 -1.5360 -1.5668
C -1.6038 -1.5330 -1.5584
C -1.6012 -1.5279 -1.5519
C -1.6053 -1.5263 -1.5514
C -1.5940 -1.5249 -1.5447
C -1.5928 -1.5213 -1.5391
C -1.5889 -1.5270 -1.5448
C -1.5830 -1.5253 -1.5395
C -1.5909 -1.5319 -1.5518
C -1.5877 -1.5335 -1.5522
C -1.5984 -1.5349 -1.5580
C -1.5938 -1.5518 -1.5737
C -1.5954 -1.5557 -1.5741
C -1.5888 -1.5498 -1.5755
C -1.5884 -1.5466 -1.5765
C -1.5841 -1.5519 -1.5764
C -1.5799 -1.5485 -1.5782
C -1.5830 -1.5502 -1.5747
C -1.5865 -1.5584 -1.5767
C -1.5895 -1.5611 -1.5777
C -1.5866 -1.5609 -1.5750
138
REAL frame=14
C -1.5989 -1.5668 -1.5744
C -1.6017 -1.5701 -1.5729
C -1.5994 -1.5621 -1.5755
C -1.5961 -1.5668 -1.5735
C -1.5976 -1.5709 -1.5763
C -1.5935 -1.5713 -1.5762
C -1.5988 -1.5746 -1.5771
C -1.6003 -1.5707 -1.5760
C -1.6055 -1.5742 -1.5733
C -1.5969 -1.5668 -1.5771
C -1.5937 -1.5644 -1.5800
C -1.5980 -1.5651 -1.5776
C -1.5998 -1.5632 -1.5742
C -1.5941 -1.5600 -1.5804
C -1.5927 -1.5554 -1.5775
C -1.5920 -1.5645 -1.5810
C -1.5964 -1.5576 -1.5846
C -1.5964 -1.5641 -1.5886
C -1.5956 -1.5704 -1.5893
C -1.5985 -1.5618 -1.5914
C -1.5977 -1.5667 -1.5947
C -1.6024 -1.5525 -1.5904
C -1.6053 -1.5506 -1.5939
C -1.5982 -1.5472 -1.5864
C -1.6021 -1.5459 -1.5864
C -1.6041 -1.5389 -1.5853
C -1.5984 -1.5484 -1.5835
C -1.5980 -1.5439 -1.5804
C -1.6013 -1.5704 -1.5797
C -1.6045 -1.5755 -1.5796
C -1.6006 -1.5686 -1.5821
C -1.6008 -1.5639 -1.5803
C -1.6007 -1.5726 -1.5861
C -1.5984 -1.5739 -1.5895
C -1.6046 -1.5780 -1.5874
C -1.6028 -1.5789 -1.5861
C -1.6068 -1.5823 -1.5914
C -1.6107 -1.5769 -1.5849
C -1.6073 -1.5691 -1.5861
C -1.6190 -1.5833 -1.5810
C -1.6011 -1.5705 -1.5842
C -1.6041 -1.5680 -1.5809
C -1.5994 -1.5720 -1.5860
C -1.5970 -1.5747 -1.5894
C -1.5991 -1.5768 -1.5896
C -1.5931 -1.5740 -1.5907
C -1.5956 -1.5749 -1.5895
C -1.5983 -1.5753 -1.5902
C -1.5917 -1.5752 -1.5911
C -1.5948 -1.5716 -1.5858
C -1.5959 -1.5711 -1.5856
C -1.5910 -1.5706 -1.5853
C -1.6000 -1.5693 -1.5843
C -1.5989 -1.5654 -1.5821
C -1.6062 -1.5685 -1.5840
C -1.6095 -1.5670 -1.5844
C -1.6091 -1.5712 -1.5831
C -1.6054 -1.5716 -1.5814
C -1.6165 -1.5737 -1.5833
C -1.6188 -1.5717 -1.5827
C -1.6172 -1.5816 -1.5878
C -1.6156 -1.5841 -1.5888
C -1.6221 -1.5836 -1.5859
C -1.6123 -1.5832 -1.5911
C -1.6073 -1.5835 -1.5924
C -1.6142 -1.5896 -1.5938
C -1.6128 -1.5783 -1.5885
C -1.6091 -1.5758 -1.5910
C -1.6166 -1.5758 -1.5855
C -1.6225 -1.5709 -1.5815
C -1.6291 -1.5680 -1.5802
C -1.6207 -1.5712 -1.5806
C -1.6174 -1.5735 -1.5824
C -1.6252 -1.5679 -1.5790
C -1.6290 -1.5637 -1.5780
C -1.6287 -1.5732 -1.5806
C -1.6301 -1.5700 -1.5792
C -1.6329 -1.5768 -1.5804
C -1.6287 -1.5711 -1.5863
C -1.6369 -1.5768 -1.5706
C -1.6362 -1.5867 -1.5864
C -1.6239 -1.5789 -1.5815
C -1.6212 -1.5833 -1.5826
C -1.6221 -1.5650 -1.5775
C -1.6238 -1.5657 -1.5771
C -1.6176 -1.5619 -1.5765
C -1.6164 -1.5621 -1.5770
C -1.6142 -1.5607 -1.5771
C -1.6142 -1.5653 -1.5775
C -1.6131 -1.5574 -1.5798
C -1.6141 -1.5571 -1.5740
C -1.6160 -1.5510 -1.5717
C -1.6119 -1.5621 -1.5745
C -1.6110 -1.5673 -1.5762
C -1.6098 -1.5616 -1.5736
C -1.6111 -1.5596 -1.5715
C -1.6111 -1.5669 -1.5740
C -1.6084 -1.5705 -1.5650
C -1.6172 -1.5533 -1.5778
C -1.6150 -1.5464 -1.5841
C -1.6186 -1.5524 -1.5701
C -1.6224 -1.5508 -1.5802
C -1.6106 -1.5769 -1.5838
C -1.6067 -1.5846 -1.5837
C -1.6051 -1.5578 -1.5750
C -1.6038 -1.5618 -1.5761
C -1.6034 -1.5527 -1.5733
C -1.6044 -1.5508 -1.5709
C -1.5985 -1.5491 -1.5726
C -1.5967 -1.5481 -1.5736
C -1.5993 -1.5432 -1.5693
C -1.6016 -1.5455 -1.5669
C -1.5959 -1.5390 -1.5726
C -1.6023 -1.5399 -1.5658
C -1.6100 -1.5402 -1.5693
C -1.6142 -1.5424 -1.5752
C -1.6104 -1.5363 -1.5654
C -1.6159 -1.5362 -1.5670
C -1.6038 -1.5331 -1.5582
C -1.6011 -1.5279 -1.5519
C -1.6056 -1.5264 -1.5517
C -1.5941 -1.5250 -1.5448
C -1.5932 -1.5212 -1.5392
C -1.5889 -1.5270 -1.5447
C -1.5831 -1.5244 -1.5390
C -1.5909 -1.5318 -1.5518
C -1.5881 -1.5334 -1.5516
C -1.5984 -1.5348 -1.5580
C -1.5939 -1.5517 -1.5738
C -1.5955 -1.5557 -1.5740
C -1.5888 -1.5499 -1.5756
C -1.5883 -1.5466 -1.5762
C -1.5841 -1.5519 -1.5763
C -1.5799 -1.5484 -1.5782
C -1.5826 -1.5507 -1.5748
C -1.5865 -1.5583 -1.5768
C -1.5894 -1.5612 -1.5777
C -1.5867 -1.5609 -1.5749
138
REAL frame=15
C -1.5988 -1.5668 -1.5744
C -1.6017 -1.5695 -1.5731
C -1.5998 -1.5616 -1.5763
C -1.5960 -1.5670 -1.5737
C -1.5977 -1.5709 -1.5764
C -1.5937 -1.5715 -1.5765
C -1.5991 -1.5744 -1.5768
C -1.6004 -1.5708 -1.5760
C -1.6055 -1.5741 -1.5732
C -1.5969 -1.5667 -1.5772
C -1.5935 -1.5641 -1.5798
C -1.5982 -1.5650 -1.5777
C -1.5997 -1.5627 -1.5747
C -1.5941 -1.5601 -1.5805
C -1.5928 -1.5553 -1.5775
C -1.5916 -1.5646 -1.5808
C -1.5964 -1.5574 -1.5846
C -1.5967 -1.5642 -1.5886
C -1.5953 -1.5706 -1.5895
C -1.5985 -1.5619 -1.5914
C -1.5976 -1.5668 -1.5947
C -1.6024 -1.5526 -1.5903
C -1.6054 -1.5507 -1.5939
C -1.5987 -1.5469 -1.5862
C -1.6021 -1.5459 -1.5864
C -1.6041 -1.5389 -1.5854
C -1.5985 -1.5484 -1.5836
C -1.5988 -1.5437 -1.5803
C -1.6013 -1.5703 -1.5797
C -1.6045 -1.5757 -1.5796
C -1.6005 -1.5685 -1.5820
C -1.6007 -1.5643 -1.5798
C -1.6007 -1.5726 -1.5863
C -1.5982 -1.5739 -1.5896
C -1.6046 -1.5780 -1.5874
C -1.6027 -1.5791 -1.5863
C -1.6072 -1.5821 -1.5912
C -1.6107 -1.5770 -1.5848
C -1.6073 -1.5691 -1.5859
C -1.6189 -1.5833 -1.5811
C -1.6011 -1.5705 -1.5840
C -1.6039 -1.5680 -1.5810
C -1.5993 -1.5719 -1.5859
C -1.5971 -1.5747 -1.5895
C -1.5991 -1.5771 -1.5898
C -1.5934 -1.5741 -1.5907
C -1.5955 -1.5748 -1.5894
C -1.5984 -1.5755 -1.5897
C -1.5921 -1.5753 -1.5910
C -1.5948 -1.5716 -1.5857
C -1.5957 -1.5710 -1.5855
C -1.5912 -1.5709 -1.5854
C -1.6001 -1.5693 -1.5844
C -1.5991 -1.5661 -1.5816
C -1.6062 -1.5686 -1.5839
C -1.6096 -1.5670 -1.5844
C -1.6091 -1.5710 -1.5831
C -1.6059 -1.5717 -1.5818
C -1.6165 -1.5737 -1.5834
C -1.6188 -1.5717 -1.5827
C -1.6172 -1.5816 -1.5877
C -1.6156 -1.5843 -1.5891
C -1.6223 -1.5833 -1.5865
C -1.6123 -1.5833 -1.5910
C -1.6071 -1.5835 -1.5923
C -1.6143 -1.5895 -1.5936
C -1.6128 -1.5782 -1.5882
C -1.6091 -1.5757 -1.5910
C -1.6167 -1.5758 -1.5857
C -1.6226 -1.5709 -1.5813
C -1.6291 -1.5679 -1.5804
C -1.6208 -1.5712 -1.5806
C -1.6172 -1.5737 -1.5818
C -1.6251 -1.5679 -1.5791
C -1.6287 -1.5638 -1.5780
C -1.6288 -1.5732 -1.5806
C -1.6304 -1.5703 -1.5791
C -1.6332 -1.5766 -1.5804
C -1.6287 -1.5709 -1.5864
C -1.6368 -1.5772 -1.5703
C -1.6357 -1.5867 -1.5864
C -1.6240 -1.5790 -1.5815
C -1.6211 -1.5825 -1.5829
C -1.6220 -1.5650 -1.5774
C -1.6237 -1.5656 -1.5771
C -1.6175 -1.5620 -1.5765
C -1.6164 -1.5621 -1.5769
C -1.6143 -1.5607 -1.5771
C -1.6142 -1.5652 -1.5776
C -1.6136 -1.5570 -1.5801
C -1.6141 -1.5572 -1.5741
C -1.6161 -1.5509 -1.5718
C -1.6119 -1.5620 -1.5746
C -1.6106 -1.5672 -1.5765
C -1.6098 -1.5617 -1.5735
C -1.6111 -1.5594 -1.5715
C -1.6111 -1.5670 -1.5741
C -1.6087 -1.5706 -1.5649
C -1.6172 -1.5532 -1.5778
C -1.6146 -1.5463 -1.5844
C -1.6185 -1.5523 -1.5702
C -1.6225 -1.5507 -1.5798
C -1.6104 -1.5768 -1.5838
C -1.6071 -1.5843 -1.5846
C -1.6050 -1.5578 -1.5750
C -1.6037 -1.5618 -1.5762
C -1.6034 -1.5527 -1.5732
C -1.6048 -1.5510 -1.5707
C -1.5986 -1.5491 -1.5725
C -1.5970 -1.5481 -1.5737
C -1.5991 -1.5431 -1.5693
C -1.6015 -1.5459 -1.5673
C -1.5957 -1.5386 -1.5726
C -1.6024 -1.5398 -1.5657
C -1.6101 -1.5403 -1.5694
C -1.6144 -1.5431 -1.5752
C -1.6104 -1.5364 -1.5653
C -1.6157 -1.5363 -1.5673
C -1.6037 -1.5331 -1.5579
C -1.6012 -1.5279 -1.5518
C -1.6059 -1.5265 -1.5520
C -1.5942 -1.5250 -1.5448
C -1.5935 -1.5212 -1.5393
C -1.5889 -1.5270 -1.5446
C -1.5833 -1.5237 -1.5386
C -1.5908 -1.5318 -1.5517
C -1.5883 -1.5333 -1.5510
C -1.5985 -1.5347 -1.5581
C -1.5940 -1.5517 -1.5739
C -1.5956 -1.5556 -1.5740
C -1.5888 -1.5500 -1.5757
C -1.5881 -1.5467 -1.5760
C -1.5841 -1.5520 -1.5761
C -1.5800 -1.5485 -1.5781
C -1.5824 -1.5513 -1.5750
C -1.5865 -1.5583 -1.5768
C -1.5894 -1.5613 -1.5777
C -1.5867 -1.5610 -1.5749
138
REAL frame=16
C -1.5987 -1.5668 -1.5744
C -1.6015 -1.5687 -1.5733
C -1.6002 -1.5611 -1.5769
C -1.5957 -1.5670 -1.5740
C -1.5977 -1.5709 -1.5765
C -1.5939 -1.5715 -1.5771
C -1.5993 -1.5742 -1.5764
C -1.6005 -1.5709 -1.5760
C -1.6055 -1.5740 -1.5732
C -1.5969 -1.5666 -1.5773
C -1.5933 -1.5639 -1.5795
C -1.5984 -1.5650 -1.5778
C -1.5997 -1.5622 -1.5753
C -1.5941 -1.5601 -1.5805
C -1.5926 -1.5549 -1.5776
C -1.5912 -1.5646 -1.5809
C -1.5963 -1.5572 -1.5846
C -1.5969 -1.5643 -1.5886
C -1.5949 -1.5709 -1.5895
C -1.5986 -1.5620 -1.5915
C -1.5977 -1.5669 -1.5947
C -1.6025 -1.5527 -1.5903
C -1.6054 -1.5506 -1.5939
C -1.5992 -1.5467 -1.5860
C -1.6020 -1.5459 -1.5865
C -1.6041 -1.5388 -1.5855
C -1.5986 -1.5484 -1.5836
C -1.5996 -1.5434 -1.5802
C -1.6013 -1.5702 -1.5796
C -1.6045 -1.5758 -1.5796
C -1.6005 -1.5684 -1.5819
C -1.6005 -1.5646 -1.5794
C -1.6006 -1.5725 -1.5864
C -1.5978 -1.5738 -1.5898
C -1.6046 -1.5780 -1.5874
C -1.6025 -1.5793 -1.5867
C -1.6074 -1.5820 -1.5913
C -1.6106 -1.5771 -1.5847
C -1.6074 -1.5690 -1.5858
C -1.6187 -1.5832 -1.5813
C -1.6011 -1.5705 -1.5839
C -1.6038 -1.5680 -1.5811
C -1.5992 -1.5718 -1.5858
C -1.5971 -1.5746 -1.5895
C -1.5992 -1.5774 -1.5904
C -1.5937 -1.5744 -1.5905
C -1.5955 -1.5747 -1.5893
C -1.5985 -1.5757 -1.5894
C -1.5925 -1.5755 -1.5910
C -1.5949 -1.5715 -1.5858
C -1.5955 -1.5709 -1.5854
C -1.5913 -1.5713 -1.5853
C -1.6003 -1.5693 -1.5844
C -1.5994 -1.5668 -1.5811
C -1.6061 -1.5686 -1.5837
C -1.6097 -1.5670 -1.5844
C -1.6090 -1.5708 -1.5831
C -1.6064 -1.5719 -1.5822
C -1.6166 -1.5737 -1.5836
C -1.6188 -1.5717 -1.5827
C -1.6172 -1.5815 -1.5875
C -1.6155 -1.5845 -1.5895
C -1.6224 -1.5831 -1.5872
C -1.6123 -1.5834 -1.5910
C -1.6067 -1.5834 -1.5924
C -1.6143 -1.5892 -1.5934
C -1.6127 -1.5782 -1.5881
C -1.6091 -1.5756 -1.5910
C -1.6168 -1.5759 -1.5858
C -1.6227 -1.5709 -1.5811
C -1.6291 -1.5679 -1.5805
C -1.6209 -1.5712 -1.5807
C -1.6168 -1.5739 -1.5812
C -1.6251 -1.5680 -1.5792
C -1.6283 -1.5640 -1.5779
C -1.6288 -1.5732 -1.5805
C -1.6310 -1.5707 -1.5790
C -1.6334 -1.5764 -1.5805
C -1.6287 -1.5708 -1.5862
C -1.6367 -1.5775 -1.5701
C -1.6355 -1.5866 -1.5865
C -1.6240 -1.5790 -1.5815
C -1.6210 -1.5817 -1.5831
C -1.6220 -1.5649 -1.5772
C -1.6236 -1.5654 -1.5771
C -1.6174 -1.5621 -1.5765
C -1.6164 -1.5619 -1.5768
C -1.6146 -1.5607 -1.5771
C -1.6141 -1.5651 -1.5776
C -1.6140 -1.5568 -1.5803
C -1.6142 -1.5573 -1.5743
C -1.6162 -1.5508 -1.5719
C -1.6119 -1.5619 -1.5746
C -1.6102 -1.5670 -1.5768
C -1.6098 -1.5617 -1.5734
C -1.6110 -1.5593 -1.5715
C -1.6110 -1.5671 -1.5742
C -1.6090 -1.5707 -1.5650
C -1.6172 -1.5531 -1.5778
C -1.6142 -1.5464 -1.5849
C -1.6184 -1.5524 -1.5702
C -1.6225 -1.5504 -1.5794
C -1.6103 -1.5768 -1.5838
C -1.6075 -1.5841 -1.5853
C -1.6049 -1.5579 -1.5751
C -1.6036 -1.5618 -1.5763
C -1.6033 -1.5526 -1.5731
C -1.6053 -1.5512 -1.5705
C -1.5986 -1.5490 -1.5725
C -1.5972 -1.5479 -1.5737
C -1.5989 -1.5431 -1.5692
C -1.6011 -1.5465 -1.5676
C -1.5954 -1.5381 -1.5722
C -1.6025 -1.5396 -1.5657
C -1.6102 -1.5405 -1.5695
C -1.6146 -1.5438 -1.5752
C -1.6103 -1.5364 -1.5652
C -1.6155 -1.5364 -1.5673
C -1.6037 -1.5331 -1.5577
C -1.6012 -1.5279 -1.5517
C -1.6061 -1.5266 -1.5523
C -1.5943 -1.5250 -1.5449
C -1.5937 -1.5212 -1.5394
C -1.5890 -1.5270 -1.5445
C -1.5835 -1.5232 -1.5384
C -1.5908 -1.5318 -1.5515
C -1.5883 -1.5333 -1.5506
C -1.5985 -1.5347 -1.5583
C -1.5942 -1.5517 -1.5741
C -1.5956 -1.5556 -1.5739
C -1.5887 -1.5501 -1.5757
C -1.5878 -1.5469 -1.5758
C -1.5841 -1.5521 -1.5761
C -1.5800 -1.5487 -1.5782
C -1.5822 -1.5519 -1.5753
C -1.5866 -1.5583 -1.5768
C -1.5893 -1.5614 -1.5777
C -1.5868 -1.5610 -1.5749
138
REAL frame=17
C -1.5986 -1.5668 -1.5745
C -1.6012 -1.5679 -1.5734
C -1.6006 -1.5608 -1.5772
C -1.5955 -1.5668 -1.5741
C -1.5977 -1.5709 -1.5765
C -1.5941 -1.5712 -1.5778
C -1.5995 -1.5740 -1.5761
C -1.6007 -1.5710 -1.5759
C -1.6054 -1.5740 -1.5733
C -1.5969 -1.5665 -1.5774
C -1.5932 -1.5638 -1.5789
C -1.5986 -1.5649 -1.5779
C -1.5998 -1.5618 -1.5757
C -1.5941 -1.5601 -1.5805
C -1.5922 -1.5542 -1.5780
C -1.5907 -1.5644 -1.5811
C -1.5964 -1.5570 -1.5845
C -1.5970 -1.5643 -1.5886
C -1.5945 -1.5712 -1.5894
C -1.5987 -1.5620 -1.5915
C -1.5977 -1.5669 -1.5948
C -1.6025 -1.5528 -1.5903
C -1.6055 -1.5506 -1.5939
C -1.5997 -1.5465 -1.5858
C -1.6019 -1.5458 -1.5865
C -1.6042 -1.5386 -1.5857
C -1.5987 -1.5485 -1.5836
C -1.6001 -1.5430 -1.5802
C -1.6014 -1.5702 -1.5797
C -1.6044 -1.5759 -1.5796
C -1.6004 -1.5683 -1.5818
C -1.6003 -1.5647 -1.5793
C -1.6006 -1.5726 -1.5864
C -1.5973 -1.5735 -1.5900
C -1.6047 -1.5780 -1.5874
C -1.6022 -1.5794 -1.5871
C -1.6074 -1.5820 -1.5916
C -1.6106 -1.5771 -1.5846
C -1.6074 -1.5690 -1.5857
C -1.6186 -1.5832 -1.5814
C -1.6011 -1.5705 -1.5839
C -1.6036 -1.5679 -1.5813
C -1.5992 -1.5717 -1.5856
C -1.5972 -1.5746 -1.5894
C -1.5993 -1.5776 -1.5912
C -1.5940 -1.5748 -1.5901
C -1.5954 -1.5746 -1.5893
C -1.5986 -1.5757 -1.5892
C -1.5930 -1.5757 -1.5908
C -1.5949 -1.5715 -1.5858
C -1.5952 -1.5708 -1.5854
C -1.5915 -1.5716 -1.5849
C -1.6004 -1.5692 -1.5844
C -1.5997 -1.5672 -1.5808
C -1.6061 -1.5687 -1.5836
C -1.6098 -1.5670 -1.5845
C -1.6090 -1.5707 -1.5830
C -1.6067 -1.5720 -1.5827
C -1.6167 -1.5738 -1.5837
C -1.6187 -1.5716 -1.5826
C -1.6171 -1.5815 -1.5874
C -1.6155 -1.5845 -1.5897
C -1.6226 -1.5831 -1.5879
C -1.6123 -1.5835 -1.5908
C -1.6063 -1.5831 -1.5924
C -1.6144 -1.5889 -1.5933
C -1.6126 -1.5781 -1.5881
C -1.6092 -1.5755 -1.5909
C -1.6169 -1.5760 -1.5859
C -1.6227 -1.5709 -1.5810
C -1.6291 -1.5678 -1.5807
C -1.6210 -1.5712 -1.5808
C -1.6165 -1.5739 -1.5808
C -1.6251 -1.5681 -1.5792
C -1.6279 -1.5641 -1.5778
C -1.6288 -1.5733 -1.5804
C -1.6316 -1.5710 -1.5788
C -1.6336 -1.5763 -1.5806
C -1.6288 -1.5706 -1.5857
C -1.6367 -1.5775 -1.5700
C -1.6358 -1.5862 -1.5867
C -1.6240 -1.5791 -1.5815
C -1.6210 -1.5812 -1.5832
C -1.6220 -1.5648 -1.5770
C -1.6236 -1.5653 -1.5772
C -1.6172 -1.5622 -1.5765
C -1.6163 -1.5618 -1.5767
C -1.6148 -1.5606 -1.5771
C -1.6140 -1.5649 -1.5777
C -1.6142 -1.5568 -1.5802
C -1.6143 -1.5574 -1.5744
C -1.6162 -1.5507 -1.5719
C -1.6119 -1.5619 -1.5747
C -1.6099 -1.5668 -1.5771
C -1.6098 -1.5617 -1.5733
C -1.6111 -1.5593 -1.5714
C -1.6110 -1.5671 -1.5743
C -1.6092 -1.5707 -1.5651
C -1.6171 -1.5531 -1.5778
C -1.6140 -1.5466 -1.5855
C -1.6183 -1.5526 -1.5702
C -1.6226 -1.5500 -1.5791
C -1.6101 -1.5768 -1.5837
C -1.6076 -1.5838 -1.5858
C -1.6049 -1.5580 -1.5752
C -1.6036 -1.5617 -1.5765
C -1.6032 -1.5526 -1.5729
C -1.6059 -1.5513 -1.5704
C -1.5987 -1.5489 -1.5724
C -1.5973 -1.5477 -1.5737
C -1.5988 -1.5430 -1.5692
C -1.6004 -1.5470 -1.5676
C -1.5952 -1.5376 -1.5716
C -1.6026 -1.5394 -1.5657
C -1.6103 -1.5406 -1.5697
C -1.6149 -1.5444 -1.5753
C -1.6103 -1.5365 -1.5651
C -1.6152 -1.5364 -1.5672
C -1.6036 -1.5330 -1.5576
C -1.6012 -1.5279 -1.5517
C -1.6062 -1.5267 -1.5525
C -1.5943 -1.5251 -1.5449
C -1.5938 -1.5212 -1.5394
C -1.5890 -1.5269 -1.5444
C -1.5838 -1.5232 -1.5382
C -1.5908 -1.5317 -1.5513
C -1.5882 -1.5332 -1.5503
C -1.5985 -1.5347 -1.5585
C -1.5943 -1.5517 -1.5742
C -1.5957 -1.5555 -1.5738
C -1.5887 -1.5500 -1.5757
C -1.5874 -1.5473 -1.5757
C -1.5841 -1.5522 -1.5761
C -1.5800 -1.5490 -1.5782
C -1.5822 -1.5524 -1.5757
C -1.5866 -1.5583 -1.5767
C -1.5893 -1.5615 -1.5776
C -1.5868 -1.5610 -1.5749
138
REAL frame=18
C -1.5986 -1.5667 -1.5747
C -1.6008 -1.5674 -1.5733
C -1.6007 -1.5607 -1.5773
C -1.5952 -1.5665 -1.5741
C -1.5978 -1.5710 -1.5764
C -1.5943 -1.5709 -1.5785
C -1.5996 -1.5739 -1.5757
C -1.6008 -1.5710 -1.5758
C -1.6053 -1.5740 -1.5733
C -1.5969 -1.5665 -1.5775
C -1.5931 -1.5636 -1.5783
C -1.5987 -1.5647 -1.5780
C -1.6000 -1.5615 -1.5760
C -1.5942 -1.5601 -1.5805
C -1.5918 -1.5534 -1.5784
C -1.5904 -1.5641 -1.5814
C -1.5964 -1.5571 -1.5844
C -1.5972 -1.5644 -1.5885
C -1.5942 -1.5715 -1.5892
C -1.5989 -1.5620 -1.5916
C -1.5979 -1.5668 -1.5948
C -1.6025 -1.5529 -1.5903
C -1.6055 -1.5506 -1.5940
C -1.6002 -1.5464 -1.5855
C -1.6018 -1.5458 -1.5865
C -1.6043 -1.5384 -1.5858
C -1.5989 -1.5485 -1.5835
C -1.6005 -1.5428 -1.5801
C -1.6016 -1.5702 -1.5797
C -1.6043 -1.5760 -1.5795
C -1.6004 -1.5683 -1.5817
C -1.6001 -1.5645 -1.5793
C -1.6006 -1.5726 -1.5863
C -1.5967 -1.5732 -1.5902
C -1.6048 -1.5780 -1.5874
C -1.6020 -1.5794 -1.5874
C -1.6071 -1.5822 -1.5920
C -1.6105 -1.5772 -1.5844
C -1.6074 -1.5689 -1.5855
C -1.6185 -1.5831 -1.5816
C -1.6012 -1.5705 -1.5840
C -1.6034 -1.5679 -1.5814
C -1.5991 -1.5717 -1.5855
C -1.5972 -1.5747 -1.5892
C -1.5994 -1.5776 -1.5920
C -1.5942 -1.5751 -1.5895
C -1.5955 -1.5744 -1.5893
C -1.5986 -1.5756 -1.5892
C -1.5933 -1.5759 -1.5907
C -1.5950 -1.5714 -1.5858
C -1.5949 -1.5707 -1.5855
C -1.5915 -1.5717 -1.5843
C -1.6005 -1.5692 -1.5843
C -1.5998 -1.5673 -1.5807
C -1.6062 -1.5688 -1.5835
C -1.6098 -1.5670 -1.5845
C -1.6089 -1.5706 -1.5830
C -1.6068 -1.5722 -1.5832
C -1.6169 -1.5737 -1.5838
C -1.6186 -1.5715 -1.5825
C -1.6171 -1.5814 -1.5874
C -1.6156 -1.5845 -1.5896
C -1.6227 -1.5831 -1.5884
C -1.6123 -1.5836 -1.5906
C -1.6059 -1.5829 -1.5924
C -1.6144 -1.5887 -1.5932
C -1.6124 -1.5782 -1.5883
C -1.6092 -1.5754 -1.5908
C -1.6170 -1.5761 -1.5859
C -1.6228 -1.5709 -1.5809
C -1.6291 -1.5679 -1.5808
C -1.6212 -1.5712 -1.5808
C -1.6161 -1.5738 -1.5807
C -1.6251 -1.5681 -1.5792
C -1.6276 -1.5643 -1.5777
C -1.6288 -1.5733 -1.5803
C -1.6322 -1.5712 -1.5787
C -1.6337 -1.5762 -1.5807
C -1.6291 -1.5704 -1.5850
C -1.6369 -1.5772 -1.5701
C -1.6364 -1.5857 -1.5870
C -1.6241 -1.5790 -1.5816
C -1.6210 -1.5809 -1.5833
C -1.6220 -1.5647 -1.5768
C -1.6235 -1.5652 -1.5772
C -1.6171 -1.5623 -1.5765
C -1.6161 -1.5617 -1.5767
C -1.6150 -1.5606 -1.5772
C -1.6139 -1.5648 -1.5778
C -1.6141 -1.5570 -1.5799
C -1.6143 -1.5574 -1.5745
C -1.6162 -1.5506 -1.5719
C -1.6119 -1.5619 -1.5748
C -1.6097 -1.5668 -1.5773
C -1.6099 -1.5618 -1.5733
C -1.6111 -1.5594 -1.5713
C -1.6109 -1.5670 -1.5745
C -1.6092 -1.5707 -1.5653
C -1.6171 -1.5531 -1.5778
C -1.6139 -1.5467 -1.5860
C -1.6181 -1.5527 -1.5703
C -1.6227 -1.5496 -1.5790
C -1.6100 -1.5768 -1.5837
C -1.6075 -1.5836 -1.5859
C -1.6049 -1.5582 -1.5753
C -1.6035 -1.5616 -1.5766
C -1.6032 -1.5525 -1.5726
C -1.6063 -1.5515 -1.5704
C -1.5986 -1.5488 -1.5724
C -1.5973 -1.5474 -1.5736
C -1.5987 -1.5430 -1.5692
C -1.5997 -1.5472 -1.5675
C -1.5950 -1.5372 -1.5709
C -1.6027 -1.5394 -1.5658
C -1.6104 -1.5408 -1.5698
C -1.6150 -1.5448 -1.5753
C -1.6103 -1.5366 -1.5650
C -1.6149 -1.5363 -1.5669
C -1.6036 -1.5328 -1.5576
C -1.6013 -1.5278 -1.5516
C -1.6062 -1.5267 -1.5525
C -1.5944 -1.5251 -1.5449
C -1.5938 -1.5212 -1.5394
C -1.5890 -1.5268 -1.5443
C -1.5840 -1.5236 -1.5382
C -1.5908 -1.5317 -1.5510
C -1.5878 -1.5332 -1.5501
C -1.5985 -1.5348 -1.5586
C -1.5944 -1.5518 -1.5744
C -1.5958 -1.5554 -1.5737
C -1.5888 -1.5500 -1.5757
C -1.5871 -1.5477 -1.5756
C -1.5841 -1.5522 -1.5762
C -1.5800 -1.5493 -1.5783
C -1.5824 -1.5526 -1.5759
C -1.5866 -1.5584 -1.5765
C -1.5892 -1.5616 -1.5776
C -1.5868 -1.5610 -1.5750
138
REAL frame=19
C -1.5986 -1.5667 -1.5750
C -1.6005 -1.5672 -1.5731
C -1.6005 -1.5608 -1.5772
C -1.5949 -1.5660 -1.5739
C -1.5979 -1.5711 -1.5763
C -1.5945 -1.5705 -1.5790
C -1.5997 -1.5739 -1.5755
C -1.6008 -1.5709 -1.5758
C -1.6052 -1.5740 -1.5733
C -1.5970 -1.5665 -1.5775
C -1.5931 -1.5633 -1.5777
C -1.5988 -1.5646 -1.5782
C -1.6003 -1.5614 -1.5761
C -1.5942 -1.5600 -1.5806
C -1.5915 -1.5527 -1.5789
C -1.5902 -1.5638 -1.5816
C -1.5965 -1.5573 -1.5843
C -1.5972 -1.5644 -1.5884
C -1.5939 -1.5717 -1.5888
C -1.5990 -1.5621 -1.5916
C -1.5981 -1.5668 -1.5949
C -1.6025 -1.5529 -1.5905
C -1.6055 -1.5506 -1.5940
C -1.6008 -1.5463 -1.5853
C -1.6018 -1.5457 -1.5865
C -1.6044 -1.5383 -1.5860
C -1.5991 -1.5484 -1.5835
C -1.6007 -1.5427 -1.5801
C -1.6017 -1.5703 -1.5799
C -1.6042 -1.5761 -1.5794
C -1.6003 -1.5682 -1.5817
C -1.6000 -1.5641 -1.5795
C -1.6006 -1.5727 -1.5862
C -1.5961 -1.5729 -1.5903
C -1.6049 -1.5781 -1.5875
C -1.6019 -1.5793 -1.5875
C -1.6066 -1.5823 -1.5924
C -1.6104 -1.5772 -1.5844
C -1.6074 -1.5689 -1.5854
C -1.6184 -1.5831 -1.5817
C -1.6012 -1.5705 -1.5841
C -1.6033 -1.5678 -1.5815
C -1.5992 -1.5717 -1.5854
C -1.5971 -1.5747 -1.5890
C -1.5994 -1.5773 -1.5926
C -1.5944 -1.5754 -1.5890
C -1.5956 -1.5743 -1.5893
C -1.5987 -1.5754 -1.5893
C -1.5935 -1.5760 -1.5906
C -1.5951 -1.5713 -1.5858
C -1.5945 -1.5707 -1.5857
C -1.5916 -1.5717 -1.5837
C -1.6005 -1.5691 -1.5841
C -1.5998 -1.5669 -1.5807
C -1.6062 -1.5688 -1.5835
C -1.6098 -1.5671 -1.5845
C -1.6089 -1.5706 -1.5829
C -1.6069 -1.5724 -1.5837
C -1.6170 -1.5736 -1.5838
C -1.6187 -1.5715 -1.5825
C -1.6171 -1.5814 -1.5874
C -1.6157 -1.5843 -1.5893
C -1.6227 -1.5831 -1.5885
C -1.6123 -1.5837 -1.5904
C -1.6058 -1.5827 -1.5924
C -1.6144 -1.5886 -1.5932
C -1.6123 -1.5782 -1.5885
C -1.6093 -1.5753 -1.5907
C -1.6171 -1.5762 -1.5859
C -1.6229 -1.5708 -1.5811
C -1.6291 -1.5679 -1.5808
C -1.6213 -1.5712 -1.5808
C -1.6157 -1.5736 -1.5811
C -1.6252 -1.5682 -1.5790
C -1.6275 -1.5644 -1.5776
C -1.6288 -1.5733 -1.5802
C -1.6325 -1.5713 -1.5786
C -1.6337 -1.5763 -1.5808
C -1.6294 -1.5702 -1.5843
C -1.6372 -1.5768 -1.5705
C -1.6373 -1.5850 -1.5873
C -1.6241 -1.5790 -1.5816
C -1.6212 -1.5810 -1.5833
C -1.6219 -1.5646 -1.5767
C -1.6235 -1.5652 -1.5771
C -1.6170 -1.5623 -1.5766
C -1.6157 -1.5616 -1.5767
C -1.6151 -1.5606 -1.5773
C -1.6138 -1.5646 -1.5779
C -1.6139 -1.5573 -1.5794
C -1.6144 -1.5573 -1.5746
C -1.6162 -1.5504 -1.5720
C -1.6119 -1.5620 -1.5749
C -1.6096 -1.5669 -1.5774
C -1.6099 -1.5617 -1.5733
C -1.6112 -1.5596 -1.5712
C -1.6109 -1.5670 -1.5746
C -1.6090 -1.5707 -1.5656
C -1.6170 -1.5530 -1.5778
C -1.6141 -1.5469 -1.5863
C -1.6179 -1.5527 -1.5703
C -1.6228 -1.5492 -1.5791
C -1.6099 -1.5768 -1.5837
C -1.6070 -1.5836 -1.5857
C -1.6049 -1.5584 -1.5753
C -1.6034 -1.5616 -1.5768
C -1.6032 -1.5525 -1.5724
C -1.6065 -1.5516 -1.5702
C -1.5986 -1.5487 -1.5724
C -1.5973 -1.5471 -1.5735
C -1.5987 -1.5429 -1.5692
C -1.5988 -1.5472 -1.5671
C -1.5950 -1.5369 -1.5704
C -1.6028 -1.5394 -1.5659
C -1.6105 -1.5408 -1.5698
C -1.6152 -1.5447 -1.5754
C -1.6103 -1.5367 -1.5649
C -1.6146 -1.5362 -1.5666
C -1.6036 -1.5327 -1.5577
C -1.6014 -1.5278 -1.5515
C -1.6061 -1.5265 -1.5522
C -1.5945 -1.5251 -1.5448
C -1.5937 -1.5212 -1.5393
C -1.5890 -1.5266 -1.5442
C -1.5842 -1.5242 -1.5383
C -1.5909 -1.5317 -1.5509
C -1.5874 -1.5332 -1.5501
C -1.5984 -1.5349 -1.5585
C -1.5945 -1.5518 -1.5745
C -1.5959 -1.5553 -1.5736
C -1.5888 -1.5499 -1.5756
C -1.5869 -1.5479 -1.5754
C -1.5841 -1.5523 -1.5763
C -1.5800 -1.5496 -1.5785
C -1.5827 -1.5526 -1.5760
C -1.5867 -1.5586 -1.5763
C -1.5891 -1.5617 -1.5776
C -1.5869 -1.5610 -1.5750
138
REAL frame=20
C -1.5985 -1.5666 -1.5752
C -1.6002 -1.5672 -1.5729
C -1.6000 -1.5610 -1.5772
C -1.5947 -1.5655 -1.5737
C -1.5980 -1.5712 -1.5762
C -1.5946 -1.5702 -1.5793
C -1.5998 -1.5741 -1.5753
C -1.6008 -1.5708 -1.5758
C -1.6051 -1.5740 -1.5734
C -1.5971 -1.5665 -1.5774
C -1.5931 -1.5629 -1.5772
C -1.5988 -1.5644 -1.5784
C -1.6007 -1.5615 -1.5760
C -1.5943 -1.5599 -1.5806
C -1.5914 -1.5522 -1.5792
C -1.5903 -1.5636 -1.5818
C -1.5967 -1.5576 -1.5842
C -1.5973 -1.5644 -1.5883
C -1.5938 -1.5718 -1.5885
C -1.5992 -1.5621 -1.5917
C -1.5984 -1.5668 -1.5950
C -1.6025 -1.5530 -1.5906
C -1.6055 -1.5505 -1.5940
C -1.6013 -1.5462 -1.5850
C -1.6017 -1.5457 -1.5866
C -1.6046 -1.5381 -1.5861
C -1.5992 -1.5483 -1.5834
C -1.6007 -1.5427 -1.5800
C -1.6019 -1.5704 -1.5800
C -1.6041 -1.5762 -1.5794
C -1.6003 -1.5681 -1.5817
C -1.5999 -1.5635 -1.5799
C -1.6005 -1.5728 -1.5861
C -1.5958 -1.5727 -1.5901
C -1.6049 -1.5781 -1.5876
C -1.6020 -1.5792 -1.5874
C -1.6062 -1.5825 -1.5928
C -1.6103 -1.5772 -1.5844
C -1.6074 -1.5689 -1.5852
C -1.6184 -1.5830 -1.5818
C -1.6013 -1.5705 -1.5843
C -1.6031 -1.5678 -1.5816
C -1.5993 -1.5717 -1.5854
C -1.5971 -1.5747 -1.5888
C -1.5995 -1.5769 -1.5929
C -1.5943 -1.5755 -1.5885
C -1.5957 -1.5743 -1.5892
C -1.5986 -1.5750 -1.5895
C -1.5935 -1.5759 -1.5905
C -1.5951 -1.5712 -1.5858
C -1.5942 -1.5708 -1.5859
C -1.5916 -1.5716 -1.5831
C -1.6005 -1.5690 -1.5840
C -1.5997 -1.5662 -1.5809
C -1.6063 -1.5687 -1.5835
C -1.6098 -1.5672 -1.5845
C -1.6088 -1.5706 -1.5828
C -1.6068 -1.5726 -1.5840
C -1.6171 -1.5735 -1.5836
C -1.6189 -1.5714 -1.5826
C -1.6170 -1.5814 -1.5875
C -1.6158 -1.5841 -1.5888
C -1.6226 -1.5831 -1.5883
C -1.6122 -1.5836 -1.5903
C -1.6058 -1.5827 -1.5922
C -1.6143 -1.5888 -1.5932
C -1.6122 -1.5783 -1.5886
C -1.6093 -1.5752 -1.5907
C -1.6172 -1.5762 -1.5859
C -1.6229 -1.5708 -1.5813
C -1.6291 -1.5679 -1.5809
C -1.6214 -1.5712 -1.5808
C -1.6154 -1.5732 -1.5817
C -1.6252 -1.5682 -1.5789
C -1.6276 -1.5644 -1.5776
C -1.6289 -1.5733 -1.5800
C -1.6325 -1.5712 -1.5784
C -1.6337 -1.5763 -1.5809
C -1.6298 -1.5702 -1.5835
C -1.6375 -1.5763 -1.5709
C -1.6382 -1.5841 -1.5874
C -1.6241 -1.5789 -1.5817
C -1.6214 -1.5813 -1.5833
C -1.6218 -1.5645 -1.5767
C -1.6234 -1.5651 -1.5770
C -1.6171 -1.5623 -1.5766
C -1.6153 -1.5616 -1.5767
C -1.6151 -1.5605 -1.5774
C -1.6138 -1.5645 -1.5781
C -1.6137 -1.5576 -1.5789
C -1.6144 -1.5572 -1.5746
C -1.6162 -1.5503 -1.5720
C -1.6119 -1.5621 -1.5750
C -1.6097 -1.5671 -1.5774
C -1.6099 -1.5617 -1.5734
C -1.6113 -1.5599 -1.5710
C -1.6108 -1.5669 -1.5747
C -1.6086 -1.5707 -1.5659
C -1.6169 -1.5530 -1.5778
C -1.6143 -1.5469 -1.5864
C -1.6177 -1.5526 -1.5704
C -1.6228 -1.5490 -1.5793
C -1.6099 -1.5768 -1.5837
C -1.6063 -1.5836 -1.5851
C -1.6049 -1.5586 -1.5751
C -1.6033 -1.5616 -1.5770
C -1.6032 -1.5525 -1.5723
C -1.6063 -1.5517 -1.5699
C -1.5984 -1.5487 -1.5723
C -1.5972 -1.5468 -1.5734
C -1.5986 -1.5428 -1.5692
C -1.5981 -1.5470 -1.5667
C -1.5949 -1.5367 -1.5702
C -1.6028 -1.5396 -1.5660
C -1.6105 -1.5408 -1.5699
C -1.6152 -1.5443 -1.5755
C -1.6103 -1.5368 -1.5649
C -1.6143 -1.5361 -1.5663
C -1.6035 -1.5326 -1.5579
C -1.6015 -1.5278 -1.5515
C -1.6059 -1.5263 -1.5517
C -1.5946 -1.5250 -1.5447
C -1.5936 -1.5212 -1.5392
C -1.5890 -1.5265 -1.5441
C -1.5844 -1.5248 -1.5385
C -1.5909 -1.5317 -1.5508
C -1.5870 -1.5331 -1.5501
C -1.5983 -1.5349 -1.5583
C -1.5946 -1.5518 -1.5747
C -1.5960 -1.5553 -1.5735
C -1.5888 -1.5498 -1.5755
C -1.5869 -1.5478 -1.5752
C -1.5841 -1.5524 -1.5765
C -1.5800 -1.5499 -1.5787
C -1.5830 -1.5523 -1.5759
C -1.5867 -1.5587 -1.5762
C -1.5890 -1.5618 -1.5775
C -1.5869 -1.5610 -1.5751
138
REAL frame=21
C -1.5995 -1.5675 -1.5765
C -1.6011 -1.5686 -1.5738
C -1.6005 -1.5623 -1.5784
C -1.5956 -1.5662 -1.5747
C -1.5992 -1.5723 -1.5773
C -1.5957 -1.5712 -1.5803
C -1.6009 -1.5754 -1.5764
C -1.6017 -1.5718 -1.5769
C -1.6061 -1.5750 -1.5745
C -1.5984 -1.5676 -1.5784
C -1.5942 -1.5636 -1.5779
C -1.5999 -1.5654 -1.5796
C -1.6021 -1.5628 -1.5770
C -1.5953 -1.5608 -1.5818
C -1.5925 -1.5531 -1.5803
C -1.5916 -1.5646 -1.5829
C -1.5979 -1.5589 -1.5853
C -1.5983 -1.5655 -1.5891
C -1.5950 -1.5729 -1.5893
C -1.6005 -1.5633 -1.5928
C -1.5997 -1.5680 -1.5960
C -1.6035 -1.5541 -1.5918
C -1.6067 -1.5516 -1.5950
C -1.6029 -1.5472 -1.5858
C -1.6028 -1.5468 -1.5877
C -1.6057 -1.5392 -1.5872
C -1.6005 -1.5493 -1.5844
C -1.6016 -1.5439 -1.5810
C -1.6031 -1.5715 -1.5811
C -1.6051 -1.5773 -1.5804
C -1.6014 -1.5692 -1.5828
C -1.6008 -1.5642 -1.5815
C -1.6015 -1.5739 -1.5870
C -1.5967 -1.5739 -1.5909
C -1.6059 -1.5793 -1.5888
C -1.6032 -1.5801 -1.5882
C -1.6068 -1.5838 -1.5942
C -1.6113 -1.5783 -1.5855
C -1.6084 -1.5700 -1.5861
C -1.6193 -1.5840 -1.5831
C -1.6023 -1.5715 -1.5855
C -1.6040 -1.5688 -1.5828
C -1.6005 -1.5729 -1.5865
C -1.5981 -1.5759 -1.5897
C -1.6007 -1.5775 -1.5937
C -1.5953 -1.5766 -1.5891
C -1.5969 -1.5753 -1.5902
C -1.5996 -1.5757 -1.5909
C -1.5944 -1.5768 -1.5915
C -1.5962 -1.5722 -1.5868
C -1.5950 -1.5719 -1.5872
C -1.5927 -1.5726 -1.5837
C -1.6015 -1.5701 -1.5849
C -1.6006 -1.5664 -1.5823
C -1.6075 -1.5698 -1.5847
C -1.6108 -1.5684 -1.5855
C -1.6099 -1.5718 -1.5837
C -1.6078 -1.5739 -1.5853
C -1.6182 -1.5745 -1.5846
C -1.6202 -1.5724 -1.5838
C -1.6181 -1.5826 -1.5887
C -1.6169 -1.5848 -1.5893
C -1.6236 -1.5843 -1.5890
C -1.6132 -1.5847 -1.5913
C -1.6069 -1.5840 -1.5929
C -1.6151 -1.5902 -1.5943
C -1.6133 -1.5796 -1.5897
C -1.6103 -1.5763 -1.5918
C -1.6184 -1.5774 -1.5870
C -1.6240 -1.5719 -1.5827
C -1.6302 -1.5691 -1.5820
C -1.6225 -1.5723 -1.5819
C -1.6163 -1.5739 -1.5835
C -1.6262 -1.5694 -1.5798
C -1.6289 -1.5655 -1.5788
C -1.6300 -1.5744 -1.5810
C -1.6333 -1.5722 -1.5794
C -1.6347 -1.5775 -1.5822
C -1.6311 -1.5714 -1.5841
C -1.6388 -1.5770 -1.5726
C -1.6399 -1.5843 -1.5886
C -1.6252 -1.5799 -1.5829
C -1.6226 -1.5828 -1.5844
C -1.6228 -1.5656 -1.5780
C -1.6245 -1.5662 -1.5781
C -1.6183 -1.5634 -1.5779
C -1.6160 -1.5627 -1.5779
C -1.6161 -1.5617 -1.5785
C -1.6150 -1.5655 -1.5795
C -1.6145 -1.5589 -1.5795
C -1.6155 -1.5582 -1.5757
C -1.6172 -1.5513 -1.5733
C -1.6129 -1.5633 -1.5762
C -1.6109 -1.5685 -1.5785
C -1.6110 -1.5628 -1.5747
C -1.6124 -1.5613 -1.5722
C -1.6118 -1.5679 -1.5759
C -1.6092 -1.5717 -1.5673
C -1.6179 -1.5541 -1.5790
C -1.6157 -1.5480 -1.5875
C -1.6185 -1.5534 -1.5716
C -1.6237 -1.5501 -1.5808
C -1.6108 -1.5780 -1.5849
C -1.6065 -1.5847 -1.5854
C -1.6060 -1.5598 -1.5760
C -1.6043 -1.5626 -1.5783
C -1.6044 -1.5537 -1.5734
C -1.6070 -1.5529 -1.5707
C -1.5993 -1.5498 -1.5735
C -1.5981 -1.5476 -1.5744
C -1.5996 -1.5439 -1.5703
C -1.5987 -1.5478 -1.5674
C -1.5959 -1.5376 -1.5716
C -1.6039 -1.5410 -1.5673
C -1.6117 -1.5419 -1.5711
C -1.6162 -1.5448 -1.5768
C -1.6114 -1.5380 -1.5661
C -1.6152 -1.5372 -1.5673
C -1.6046 -1.5338 -1.5593
C -1.6027 -1.5289 -1.5526
C -1.6067 -1.5273 -1.5523
C -1.5957 -1.5261 -1.5457
C -1.5945 -1.5223 -1.5402
C -1.5901 -1.5276 -1.5452
C -1.5855 -1.5263 -1.5397
C -1.5921 -1.5328 -1.5519
C -1.5876 -1.5341 -1.5513
C -1.5993 -1.5361 -1.5593
C -1.5956 -1.5529 -1.5759
C -1.5971 -1.5563 -1.5746
C -1.5899 -1.5509 -1.5766
C -1.5882 -1.5486 -1.5760
C -1.5852 -1.5535 -1.5778
C -1.5812 -1.5512 -1.5800
C -1.5843 -1.5530 -1.5769
C -1.5878 -1.5598 -1.5772
C -1.5900 -1.5630 -1.5785
C -1.5881 -1.5621 -1.5762
138
REAL frame=22
C -1.5994 -1.5674 -1.5767
C -1.6011 -1.5690 -1.5739
C -1.6000 -1.5626 -1.5787
C -1.5956 -1.5661 -1.5748
C -1.5994 -1.5724 -1.5773
C -1.5957 -1.5714 -1.5800
C -1.6009 -1.5758 -1.5764
C -1.6016 -1.5718 -1.5769
C -1.6060 -1.5750 -1.5745
C -1.5985 -1.5675 -1.5784
C -1.5942 -1.5632 -1.5776
C -1.5998 -1.5654 -1.5797
C -1.6024 -1.5630 -1.5768
C -1.5954 -1.5606 -1.5818
C -1.5927 -1.5532 -1.5801
C -1.5919 -1.5646 -1.5829
C -1.5981 -1.5591 -1.5852
C -1.5983 -1.5655 -1.5890
C -1.5953 -1.5728 -1.5892
C -1.6007 -1.5633 -1.5928
C -1.6001 -1.5682 -1.5960
C -1.6034 -1.5541 -1.5920
C -1.6067 -1.5515 -1.5950
C -1.6034 -1.5472 -1.5856
C -1.6028 -1.5468 -1.5877
C -1.6057 -1.5393 -1.5871
C -1.6007 -1.5492 -1.5843
C -1.6013 -1.5439 -1.5810
C -1.6031 -1.5715 -1.5811
C -1.6050 -1.5773 -1.5804
C -1.6015 -1.5692 -1.5828
C -1.6005 -1.5639 -1.5820
C -1.6015 -1.5739 -1.5868
C -1.5967 -1.5743 -1.5906
C -1.6058 -1.5793 -1.5890
C -1.6035 -1.5799 -1.5879
C -1.6067 -1.5839 -1.5943
C -1.6112 -1.5783 -1.5856
C -1.6083 -1.5700 -1.5860
C -1.6193 -1.5840 -1.5832
C -1.6023 -1.5715 -1.5855
C -1.6039 -1.5688 -1.5829
C -1.6007 -1.5729 -1.5865
C -1.5980 -1.5759 -1.5896
C -1.6008 -1.5770 -1.5930
C -1.5950 -1.5765 -1.5889
C -1.5970 -1.5753 -1.5901
C -1.5995 -1.5753 -1.5911
C -1.5942 -1.5766 -1.5915
C -1.5962 -1.5721 -1.5867
C -1.5949 -1.5720 -1.5874
C -1.5926 -1.5724 -1.5835
C -1.6015 -1.5699 -1.5848
C -1.6006 -1.5655 -1.5826
C -1.6076 -1.5697 -1.5847
C -1.6107 -1.5685 -1.5855
C -1.6099 -1.5720 -1.5836
C -1.6077 -1.5740 -1.5852
C -1.6182 -1.5743 -1.5845
C -1.6205 -1.5724 -1.5838
C -1.6181 -1.5826 -1.5888
C -1.6170 -1.5845 -1.5888
C -1.6234 -1.5843 -1.5885
C -1.6131 -1.5846 -1.5913
C -1.6072 -1.5843 -1.5925
C -1.6150 -1.5907 -1.5942
C -1.6135 -1.5796 -1.5896
C -1.6103 -1.5763 -1.5919
C -1.6185 -1.5775 -1.5870
C -1.6241 -1.5719 -1.5829
C -1.6302 -1.5692 -1.5820
C -1.6226 -1.5722 -1.5819
C -1.6162 -1.5735 -1.5840
C -1.6263 -1.5695 -1.5796
C -1.6294 -1.5654 -1.5787
C -1.6301 -1.5744 -1.5809
C -1.6329 -1.5720 -1.5793
C -1.6347 -1.5776 -1.5823
C -1.6312 -1.5715 -1.5836
C -1.6390 -1.5769 -1.5730
C -1.6403 -1.5837 -1.5887
C -1.6252 -1.5798 -1.5829
C -1.6229 -1.5832 -1.5844
C -1.6227 -1.5655 -1.5781
C -1.6244 -1.5661 -1.5779
C -1.6184 -1.5633 -1.5780
C -1.6160 -1.5625 -1.5780
C -1.6159 -1.5618 -1.5786
C -1.6150 -1.5655 -1.5796
C -1.6143 -1.5590 -1.5792
C -1.6155 -1.5581 -1.5756
C -1.6172 -1.5512 -1.5733
C -1.6129 -1.5635 -1.5762
C -1.6112 -1.5689 -1.5783
C -1.6110 -1.5628 -1.5749
C -1.6125 -1.5615 -1.5723
C -1.6118 -1.5678 -1.5760
C -1.6087 -1.5716 -1.5676
C -1.6178 -1.5541 -1.5790
C -1.6160 -1.5479 -1.5872
C -1.6185 -1.5530 -1.5717
C -1.6236 -1.5503 -1.5811
C -1.6108 -1.5780 -1.5850
C -1.6058 -1.5846 -1.5847
C -1.6061 -1.5599 -1.5758
C -1.6042 -1.5626 -1.5786
C -1.6045 -1.5538 -1.5733
C -1.6066 -1.5530 -1.5704
C -1.5991 -1.5498 -1.5734
C -1.5979 -1.5475 -1.5742
C -1.5995 -1.5438 -1.5702
C -1.5985 -1.5474 -1.5669
C -1.5958 -1.5375 -1.5722
C -1.6039 -1.5412 -1.5673
C -1.6117 -1.5418 -1.5711
C -1.6162 -1.5440 -1.5768
C -1.6115 -1.5380 -1.5661
C -1.6152 -1.5373 -1.5674
C -1.6045 -1.5339 -1.5594
C -1.6028 -1.5289 -1.5526
C -1.6066 -1.5272 -1.5519
C -1.5958 -1.5259 -1.5455
C -1.5943 -1.5221 -1.5400
C -1.5901 -1.5277 -1.5451
C -1.5855 -1.5263 -1.5397
C -1.5921 -1.5328 -1.5519
C -1.5872 -1.5340 -1.5514
C -1.5992 -1.5361 -1.5591
C -1.5956 -1.5528 -1.5759
C -1.5972 -1.5563 -1.5745
C -1.5899 -1.5510 -1.5765
C -1.5885 -1.5481 -1.5757
C -1.5852 -1.5535 -1.5780
C -1.5812 -1.5514 -1.5802
C -1.5846 -1.5525 -1.5767
C -1.5878 -1.5599 -1.5772
C -1.5899 -1.5631 -1.5783
C -1.5882 -1.5622 -1.5762
138
REAL frame=23
C -1.5993 -1.5672 -1.5767
C -1.6012 -1.5693 -1.5740
C -1.5995 -1.5628 -1.5793
C -1.5957 -1.5664 -1.5752
C -1.5995 -1.5723 -1.5774
C -1.5957 -1.5717 -1.5794
C -1.6008 -1.5761 -1.5765
C -1.6015 -1.5718 -1.5768
C -1.6060 -1.5750 -1.5746
C -1.5986 -1.5675 -1.5783
C -1.5943 -1.5631 -1.5774
C -1.5998 -1.5655 -1.5797
C -1.6025 -1.5633 -1.5766
C -1.5954 -1.5605 -1.5819
C -1.5930 -1.5535 -1.5798
C -1.5924 -1.5647 -1.5827
C -1.5982 -1.5591 -1.5852
C -1.5982 -1.5655 -1.5889
C -1.5957 -1.5727 -1.5892
C -1.6008 -1.5634 -1.5928
C -1.6005 -1.5685 -1.5960
C -1.6033 -1.5540 -1.5921
C -1.6067 -1.5515 -1.5950
C -1.6040 -1.5471 -1.5855
C -1.6029 -1.5469 -1.5878
C -1.6056 -1.5395 -1.5871
C -1.6009 -1.5492 -1.5843
C -1.6010 -1.5439 -1.5811
C -1.6031 -1.5714 -1.5811
C -1.6049 -1.5774 -1.5804
C -1.6016 -1.5692 -1.5829
C -1.6000 -1.5638 -1.5825
C -1.6015 -1.5738 -1.5867
C -1.5970 -1.5748 -1.5901
C -1.6057 -1.5794 -1.5891
C -1.6036 -1.5799 -1.5876
C -1.6067 -1.5839 -1.5943
C -1.6111 -1.5782 -1.5857
C -1.6083 -1.5700 -1.5859
C -1.6193 -1.5839 -1.5833
C -1.6023 -1.5715 -1.5855
C -1.6038 -1.5688 -1.5830
C -1.6009 -1.5729 -1.5866
C -1.5980 -1.5759 -1.5895
C -1.6009 -1.5767 -1.5919
C -1.5948 -1.5763 -1.5888
C -1.5972 -1.5753 -1.5900
C -1.5995 -1.5752 -1.5913
C -1.5938 -1.5762 -1.5915
C -1.5962 -1.5720 -1.5865
C -1.5948 -1.5721 -1.5874
C -1.5926 -1.5722 -1.5835
C -1.6014 -1.5698 -1.5848
C -1.6005 -1.5647 -1.5829
C -1.6077 -1.5697 -1.5848
C -1.6107 -1.5685 -1.5855
C -1.6100 -1.5721 -1.5835
C -1.6076 -1.5741 -1.5849
C -1.6181 -1.5742 -1.5844
C -1.6207 -1.5723 -1.5838
C -1.6181 -1.5826 -1.5888
C -1.6171 -1.5843 -1.5886
C -1.6234 -1.5843 -1.5881
C -1.6130 -1.5845 -1.5914
C -1.6074 -1.5846 -1.5921
C -1.6148 -1.5911 -1.5941
C -1.6137 -1.5797 -1.5895
C -1.6102 -1.5763 -1.5920
C -1.6186 -1.5776 -1.5869
C -1.6242 -1.5720 -1.5830
C -1.6302 -1.5692 -1.5819
C -1.6227 -1.5721 -1.5820
C -1.6162 -1.5733 -1.5841
C -1.6264 -1.5695 -1.5795
C -1.6299 -1.5653 -1.5786
C -1.6302 -1.5744 -1.5809
C -1.6325 -1.5717 -1.5793
C -1.6348 -1.5776 -1.5823
C -1.6310 -1.5716 -1.5833
C -1.6392 -1.5770 -1.5732
C -1.6401 -1.5833 -1.5889
C -1.6253 -1.5797 -1.5830
C -1.6231 -1.5834 -1.5844
C -1.6227 -1.5655 -1.5782
C -1.6244 -1.5661 -1.5778
C -1.6185 -1.5631 -1.5781
C -1.6162 -1.5623 -1.5781
C -1.6158 -1.5618 -1.5786
C -1.6151 -1.5655 -1.5797
C -1.6142 -1.5590 -1.5792
C -1.6155 -1.5581 -1.5756
C -1.6172 -1.5511 -1.5734
C -1.6128 -1.5636 -1.5763
C -1.6115 -1.5691 -1.5781
C -1.6109 -1.5629 -1.5751
C -1.6125 -1.5614 -1.5726
C -1.6119 -1.5677 -1.5760
C -1.6083 -1.5714 -1.5678
C -1.6177 -1.5541 -1.5791
C -1.6161 -1.5477 -1.5868
C -1.6185 -1.5527 -1.5717
C -1.6233 -1.5507 -1.5813
C -1.6108 -1.5781 -1.5851
C -1.6053 -1.5845 -1.5841
C -1.6062 -1.5600 -1.5756
C -1.6041 -1.5625 -1.5787
C -1.6045 -1.5540 -1.5733
C -1.6062 -1.5530 -1.5703
C -1.5989 -1.5498 -1.5734
C -1.5976 -1.5475 -1.5741
C -1.5994 -1.5438 -1.5701
C -1.5986 -1.5470 -1.5667
C -1.5957 -1.5374 -1.5730
C -1.6039 -1.5414 -1.5673
C -1.6118 -1.5417 -1.5711
C -1.6161 -1.5434 -1.5768
C -1.6115 -1.5380 -1.5662
C -1.6152 -1.5373 -1.5676
C -1.6045 -1.5340 -1.5595
C -1.6029 -1.5288 -1.5526
C -1.6065 -1.5271 -1.5517
C -1.5958 -1.5258 -1.5453
C -1.5942 -1.5220 -1.5398
C -1.5902 -1.5277 -1.5451
C -1.5853 -1.5260 -1.5395
C -1.5921 -1.5327 -1.5518
C -1.5870 -1.5339 -1.5515
C -1.5992 -1.5361 -1.5589
C -1.5956 -1.5527 -1.5759
C -1.5973 -1.5562 -1.5745
C -1.5899 -1.5510 -1.5765
C -1.5889 -1.5477 -1.5754
C -1.5853 -1.5534 -1.5781
C -1.5813 -1.5515 -1.5803
C -1.5848 -1.5520 -1.5766
C -1.5878 -1.5599 -1.5772
C -1.5898 -1.5632 -1.5782
C -1.5883 -1.5623 -1.5763
138
REAL frame=24
C -1.5991 -1.5671 -1.5767
C -1.6012 -1.5694 -1.5742
C -1.5993 -1.5629 -1.5798
C -1.5958 -1.5668 -1.5758
C -1.5997 -1.5723 -1.5775
C -1.5957 -1.5722 -1.5787
C -1.6008 -1.5763 -1.5766
C -1.6015 -1.5718 -1.5768
C -1.6059 -1.5749 -1.5746
C -1.5987 -1.5674 -1.5783
C -1.5944 -1.5630 -1.5773
C -1.5998 -1.5656 -1.5797
C -1.6025 -1.5635 -1.5766
C -1.5954 -1.5604 -1.5819
C -1.5934 -1.5539 -1.5794
C -1.5927 -1.5648 -1.5825
C -1.5983 -1.5589 -1.5851
C -1.5981 -1.5656 -1.5889
C -1.5962 -1.5725 -1.5892
C -1.6010 -1.5634 -1.5928
C -1.6010 -1.5688 -1.5959
C -1.6033 -1.5540 -1.5922
C -1.6067 -1.5514 -1.5950
C -1.6044 -1.5471 -1.5854
C -1.6030 -1.5469 -1.5880
C -1.6055 -1.5397 -1.5871
C -1.6011 -1.5493 -1.5843
C -1.6006 -1.5439 -1.5812
C -1.6030 -1.5713 -1.5810
C -1.6049 -1.5775 -1.5804
C -1.6018 -1.5692 -1.5830
C -1.5994 -1.5640 -1.5830
C -1.6015 -1.5736 -1.5867
C -1.5975 -1.5752 -1.5897
C -1.6056 -1.5795 -1.5891
C -1.6037 -1.5800 -1.5875
C -1.6068 -1.5840 -1.5942
C -1.6110 -1.5782 -1.5858
C -1.6082 -1.5700 -1.5858
C -1.6193 -1.5838 -1.5833
C -1.6023 -1.5715 -1.5854
C -1.6037 -1.5688 -1.5831
C -1.6010 -1.5728 -1.5867
C -1.5981 -1.5758 -1.5894
C -1.6008 -1.5766 -1.5907
C -1.5947 -1.5761 -1.5889
C -1.5972 -1.5753 -1.5899
C -1.5996 -1.5752 -1.5914
C -1.5935 -1.5760 -1.5914
C -1.5963 -1.5719 -1.5863
C -1.5949 -1.5721 -1.5873
C -1.5926 -1.5720 -1.5837
C -1.6014 -1.5696 -1.5848
C -1.6005 -1.5643 -1.5830
C -1.6079 -1.5697 -1.5848
C -1.6106 -1.5686 -1.5855
C -1.6101 -1.5722 -1.5834
C -1.6077 -1.5741 -1.5844
C -1.6180 -1.5742 -1.5844
C -1.6208 -1.5722 -1.5837
C -1.6181 -1.5825 -1.5887
C -1.6171 -1.5844 -1.5887
C -1.6233 -1.5842 -1.5878
C -1.6129 -1.5845 -1.5915
C -1.6075 -1.5847 -1.5918
C -1.6147 -1.5914 -1.5940
C -1.6140 -1.5797 -1.5894
C -1.6101 -1.5764 -1.5922
C -1.6187 -1.5777 -1.5869
C -1.6243 -1.5720 -1.5830
C -1.6302 -1.5693 -1.5819
C -1.6227 -1.5720 -1.5821
C -1.6163 -1.5734 -1.5839
C -1.6265 -1.5695 -1.5794
C -1.6304 -1.5653 -1.5784
C -1.6303 -1.5743 -1.5809
C -1.6323 -1.5715 -1.5793
C -1.6348 -1.5775 -1.5823
C -1.6308 -1.5717 -1.5832
C -1.6392 -1.5775 -1.5733
C -1.6395 -1.5833 -1.5892
C -1.6254 -1.5796 -1.5830
C -1.6232 -1.5834 -1.5844
C -1.6227 -1.5655 -1.5783
C -1.6244 -1.5660 -1.5778
C -1.6185 -1.5629 -1.5783
C -1.6168 -1.5620 -1.5783
C -1.6155 -1.5619 -1.5786
C -1.6150 -1.5657 -1.5797
C -1.6141 -1.5589 -1.5795
C -1.6156 -1.5581 -1.5755
C -1.6172 -1.5510 -1.5734
C -1.6128 -1.5636 -1.5764
C -1.6118 -1.5691 -1.5779
C -1.6109 -1.5629 -1.5753
C -1.6125 -1.5611 -1.5730
C -1.6119 -1.5676 -1.5760
C -1.6081 -1.5712 -1.5678
C -1.6177 -1.5541 -1.5791
C -1.6162 -1.5476 -1.5865
C -1.6186 -1.5524 -1.5717
C -1.6231 -1.5513 -1.5814
C -1.6108 -1.5782 -1.5852
C -1.6051 -1.5845 -1.5839
C -1.6063 -1.5602 -1.5755
C -1.6040 -1.5624 -1.5788
C -1.6046 -1.5542 -1.5732
C -1.6060 -1.5530 -1.5703
C -1.5988 -1.5498 -1.5735
C -1.5974 -1.5476 -1.5741
C -1.5993 -1.5439 -1.5700
C -1.5989 -1.5468 -1.5665
C -1.5957 -1.5372 -1.5739
C -1.6039 -1.5414 -1.5671
C -1.6118 -1.5416 -1.5710
C -1.6160 -1.5430 -1.5768
C -1.6116 -1.5380 -1.5664
C -1.6154 -1.5374 -1.5680
C -1.6044 -1.5341 -1.5595
C -1.6030 -1.5288 -1.5526
C -1.6065 -1.5271 -1.5518
C -1.5959 -1.5257 -1.5450
C -1.5942 -1.5218 -1.5396
C -1.5903 -1.5278 -1.5450
C -1.5850 -1.5256 -1.5393
C -1.5921 -1.5327 -1.5518
C -1.5870 -1.5338 -1.5516
C -1.5992 -1.5361 -1.5589
C -1.5955 -1.5526 -1.5757
C -1.5974 -1.5561 -1.5745
C -1.5899 -1.5511 -1.5765
C -1.5891 -1.5474 -1.5752
C -1.5853 -1.5533 -1.5781
C -1.5814 -1.5515 -1.5804
C -1.5848 -1.5518 -1.5766
C -1.5878 -1.5600 -1.5773
C -1.5897 -1.5633 -1.5781
C -1.5884 -1.5624 -1.5763
138
REAL frame=25
C -1.5990 -1.5670 -1.5767
C -1.6011 -1.5693 -1.5744
C -1.5992 -1.5628 -1.5802
C -1.5961 -1.5673 -1.5764
C -1.5998 -1.5722 -1.5776
C -1.5958 -1.5726 -1.5781
C -1.6009 -1.5763 -1.5768
C -1.6015 -1.5718 -1.5767
C -1.6059 -1.5749 -1.5746
C -1.5987 -1.5673 -1.5783
C -1.5945 -1.5631 -1.5773
C -1.5999 -1.5657 -1.5796
C -1.6024 -1.5635 -1.5765
C -1.5955 -1.5604 -1.5818
C -1.5937 -1.5544 -1.5791
C -1.5930 -1.5648 -1.5824
C -1.5984 -1.5586 -1.5850
C -1.5981 -1.5657 -1.5889
C -1.5967 -1.5724 -1.5892
C -1.6012 -1.5634 -1.5927
C -1.6014 -1.5690 -1.5957
C -1.6032 -1.5541 -1.5922
C -1.6067 -1.5514 -1.5951
C -1.6049 -1.5471 -1.5853
C -1.6031 -1.5470 -1.5881
C -1.6052 -1.5399 -1.5871
C -1.6013 -1.5494 -1.5843
C -1.6004 -1.5439 -1.5813
C -1.6029 -1.5712 -1.5809
C -1.6049 -1.5776 -1.5804
C -1.6019 -1.5692 -1.5831
C -1.5988 -1.5643 -1.5834
C -1.6015 -1.5735 -1.5867
C -1.5979 -1.5755 -1.5895
C -1.6055 -1.5796 -1.5891
C -1.6036 -1.5802 -1.5876
C -1.6071 -1.5839 -1.5940
C -1.6109 -1.5781 -1.5858
C -1.6082 -1.5701 -1.5858
C -1.6193 -1.5837 -1.5834
C -1.6022 -1.5715 -1.5853
C -1.6036 -1.5688 -1.5833
C -1.6012 -1.5727 -1.5867
C -1.5982 -1.5758 -1.5894
C -1.6006 -1.5768 -1.5896
C -1.5946 -1.5758 -1.5891
C -1.5973 -1.5753 -1.5898
C -1.5997 -1.5754 -1.5913
C -1.5933 -1.5758 -1.5913
C -1.5963 -1.5719 -1.5861
C -1.5952 -1.5720 -1.5870
C -1.5926 -1.5719 -1.5840
C -1.6014 -1.5694 -1.5848
C -1.6005 -1.5643 -1.5829
C -1.6080 -1.5699 -1.5848
C -1.6106 -1.5685 -1.5856
C -1.6102 -1.5723 -1.5833
C -1.6077 -1.5740 -1.5838
C -1.6179 -1.5742 -1.5845
C -1.6207 -1.5721 -1.5836
C -1.6181 -1.5824 -1.5885
C -1.6171 -1.5846 -1.5890
C -1.6234 -1.5841 -1.5878
C -1.6129 -1.5846 -1.5916
C -1.6073 -1.5848 -1.5918
C -1.6146 -1.5916 -1.5940
C -1.6141 -1.5797 -1.5895
C -1.6100 -1.5765 -1.5922
C -1.6188 -1.5777 -1.5868
C -1.6244 -1.5720 -1.5829
C -1.6302 -1.5693 -1.5818
C -1.6228 -1.5718 -1.5822
C -1.6164 -1.5735 -1.5834
C -1.6266 -1.5694 -1.5795
C -1.6308 -1.5653 -1.5781
C -1.6304 -1.5743 -1.5809
C -1.6323 -1.5714 -1.5794
C -1.6349 -1.5774 -1.5822
C -1.6304 -1.5717 -1.5832
C -1.6392 -1.5782 -1.5732
C -1.6384 -1.5835 -1.5894
C -1.6255 -1.5796 -1.5830
C -1.6233 -1.5831 -1.5845
C -1.6229 -1.5656 -1.5782
C -1.6244 -1.5659 -1.5777
C -1.6185 -1.5628 -1.5785
C -1.6174 -1.5617 -1.5785
C -1.6154 -1.5619 -1.5786
C -1.6148 -1.5659 -1.5794
C -1.6140 -1.5588 -1.5799
C -1.6156 -1.5581 -1.5755
C -1.6172 -1.5508 -1.5735
C -1.6127 -1.5637 -1.5764
C -1.6120 -1.5689 -1.5779
C -1.6108 -1.5630 -1.5754
C -1.6124 -1.5607 -1.5734
C -1.6119 -1.5674 -1.5760
C -1.6081 -1.5710 -1.5677
C -1.6177 -1.5541 -1.5791
C -1.6162 -1.5475 -1.5863
C -1.6187 -1.5524 -1.5717
C -1.6228 -1.5519 -1.5814
C -1.6108 -1.5783 -1.5852
C -1.6051 -1.5844 -1.5843
C -1.6065 -1.5603 -1.5755
C -1.6039 -1.5623 -1.5789
C -1.6045 -1.5545 -1.5731
C -1.6061 -1.5529 -1.5705
C -1.5988 -1.5498 -1.5735
C -1.5972 -1.5478 -1.5741
C -1.5992 -1.5440 -1.5700
C -1.5992 -1.5468 -1.5666
C -1.5957 -1.5371 -1.5745
C -1.6039 -1.5413 -1.5670
C -1.6118 -1.5416 -1.5709
C -1.6159 -1.5430 -1.5767
C -1.6116 -1.5379 -1.5665
C -1.6156 -1.5375 -1.5685
C -1.6044 -1.5342 -1.5594
C -1.6030 -1.5288 -1.5525
C -1.6067 -1.5271 -1.5523
C -1.5959 -1.5256 -1.5449
C -1.5942 -1.5216 -1.5395
C -1.5904 -1.5279 -1.5450
C -1.5847 -1.5251 -1.5392
C -1.5921 -1.5326 -1.5518
C -1.5870 -1.5338 -1.5516
C -1.5993 -1.5361 -1.5590
C -1.5955 -1.5526 -1.5756
C -1.5974 -1.5560 -1.5745
C -1.5900 -1.5511 -1.5765
C -1.5891 -1.5475 -1.5751
C -1.5854 -1.5532 -1.5782
C -1.5814 -1.5514 -1.5803
C -1.5847 -1.5517 -1.5766
C -1.5878 -1.5601 -1.5774
C -1.5896 -1.5633 -1.5780
C -1.5886 -1.5625 -1.5762
138
REAL frame=26
C -1.5989 -1.5669 -1.5768
C -1.6009 -1.5688 -1.5744
C -1.5993 -1.5625 -1.5804
C -1.5963 -1.5676 -1.5769
C -1.5998 -1.5722 -1.5776
C -1.5959 -1.5729 -1.5777
C -1.6010 -1.5761 -1.5769
C -1.6016 -1.5718 -1.5767
C -1.6059 -1.5748 -1.5747
C -1.5986 -1.5672 -1.5783
C -1.5945 -1.5633 -1.5775
C -1.5999 -1.5658 -1.5795
C -1.6021 -1.5634 -1.5766
C -1.5956 -1.5605 -1.5816
C -1.5939 -1.5548 -1.5789
C -1.5931 -1.5648 -1.5824
C -1.5985 -1.5582 -1.5850
C -1.5980 -1.5657 -1.5890
C -1.5970 -1.5723 -1.5892
C -1.6013 -1.5634 -1.5926
C -1.6019 -1.5692 -1.5955
C -1.6031 -1.5541 -1.5923
C -1.6067 -1.5513 -1.5951
C -1.6054 -1.5470 -1.5853
C -1.6033 -1.5471 -1.5882
C -1.6050 -1.5401 -1.5873
C -1.6015 -1.5494 -1.5844
C -1.6003 -1.5440 -1.5815
C -1.6027 -1.5711 -1.5809
C -1.6048 -1.5776 -1.5805
C -1.6020 -1.5692 -1.5831
C -1.5983 -1.5646 -1.5838
C -1.6016 -1.5734 -1.5868
C -1.5983 -1.5755 -1.5895
C -1.6054 -1.5796 -1.5890
C -1.6033 -1.5805 -1.5879
C -1.6073 -1.5838 -1.5938
C -1.6109 -1.5781 -1.5859
C -1.6082 -1.5701 -1.5859
C -1.6192 -1.5837 -1.5835
C -1.6022 -1.5715 -1.5852
C -1.6034 -1.5687 -1.5834
C -1.6012 -1.5725 -1.5867
C -1.5983 -1.5757 -1.5893
C -1.6003 -1.5772 -1.5888
C -1.5947 -1.5756 -1.5893
C -1.5972 -1.5753 -1.5897
C -1.6000 -1.5758 -1.5910
C -1.5931 -1.5758 -1.5911
C -1.5964 -1.5719 -1.5860
C -1.5956 -1.5718 -1.5866
C -1.5927 -1.5718 -1.5842
C -1.6014 -1.5692 -1.5848
C -1.6005 -1.5645 -1.5826
C -1.6081 -1.5701 -1.5847
C -1.6105 -1.5685 -1.5857
C -1.6103 -1.5724 -1.5833
C -1.6078 -1.5737 -1.5830
C -1.6178 -1.5743 -1.5847
C -1.6203 -1.5721 -1.5834
C -1.6181 -1.5822 -1.5883
C -1.6170 -1.5848 -1.5895
C -1.6235 -1.5840 -1.5880
C -1.6129 -1.5847 -1.5916
C -1.6070 -1.5846 -1.5920
C -1.6147 -1.5917 -1.5942
C -1.6142 -1.5797 -1.5897
C -1.6100 -1.5766 -1.5923
C -1.6189 -1.5778 -1.5867
C -1.6245 -1.5719 -1.5828
C -1.6302 -1.5693 -1.5817
C -1.6228 -1.5716 -1.5823
C -1.6167 -1.5737 -1.5829
C -1.6268 -1.5693 -1.5796
C -1.6310 -1.5653 -1.5778
C -1.6304 -1.5743 -1.5810
C -1.6325 -1.5713 -1.5795
C -1.6350 -1.5774 -1.5822
C -1.6302 -1.5716 -1.5834
C -1.6391 -1.5789 -1.5733
C -1.6371 -1.5838 -1.5895
C -1.6256 -1.5795 -1.5830
C -1.6233 -1.5826 -1.5846
C -1.6230 -1.5656 -1.5782
C -1.6243 -1.5658 -1.5777
C -1.6184 -1.5626 -1.5787
C -1.6180 -1.5615 -1.5786
C -1.6153 -1.5618 -1.5786
C -1.6145 -1.5662 -1.5791
C -1.6139 -1.5587 -1.5805
C -1.6157 -1.5582 -1.5755
C -1.6172 -1.5507 -1.5735
C -1.6126 -1.5637 -1.5765
C -1.6121 -1.5685 -1.5780
C -1.6108 -1.5631 -1.5755
C -1.6122 -1.5602 -1.5739
C -1.6119 -1.5672 -1.5761
C -1.6083 -1.5708 -1.5674
C -1.6177 -1.5541 -1.5791
C -1.6162 -1.5475 -1.5863
C -1.6188 -1.5525 -1.5717
C -1.6225 -1.5525 -1.5811
C -1.6108 -1.5784 -1.5853
C -1.6054 -1.5845 -1.5850
C -1.6065 -1.5605 -1.5756
C -1.6039 -1.5621 -1.5789
C -1.6044 -1.5547 -1.5730
C -1.6064 -1.5528 -1.5709
C -1.5988 -1.5498 -1.5734
C -1.5971 -1.5481 -1.5742
C -1.5991 -1.5441 -1.5700
C -1.5994 -1.5471 -1.5669
C -1.5956 -1.5371 -1.5748
C -1.6038 -1.5411 -1.5668
C -1.6117 -1.5416 -1.5708
C -1.6158 -1.5434 -1.5767
C -1.6117 -1.5378 -1.5666
C -1.6160 -1.5376 -1.5688
C -1.6044 -1.5342 -1.5592
C -1.6031 -1.5288 -1.5524
C -1.6069 -1.5273 -1.5529
C -1.5959 -1.5255 -1.5448
C -1.5942 -1.5215 -1.5394
C -1.5905 -1.5279 -1.5449
C -1.5843 -1.5248 -1.5391
C -1.5921 -1.5326 -1.5517
C -1.5872 -1.5339 -1.5516
C -1.5994 -1.5362 -1.5592
C -1.5955 -1.5526 -1.5753
C -1.5974 -1.5558 -1.5746
C -1.5900 -1.5511 -1.5764
C -1.5889 -1.5478 -1.5753
C -1.5854 -1.5531 -1.5781
C -1.5814 -1.5511 -1.5802
C -1.5846 -1.5519 -1.5767
C -1.5879 -1.5603 -1.5774
C -1.5896 -1.5633 -1.5780
C -1.5887 -1.5626 -1.5762
138
REAL frame=27
C -1.5988 -1.5669 -1.5769
C -1.6006 -1.5682 -1.5744
C -1.5994 -1.5623 -1.5803
C -1.5964 -1.5678 -1.5772
C -1.5998 -1.5722 -1.5776
C -1.5960 -1.5731 -1.5776
C -1.6012 -1.5756 -1.5770
C -1.6017 -1.5718 -1.5767
C -1.6059 -1.5748 -1.5747
C -1.5985 -1.5671 -1.5783
C -1.5945 -1.5635 -1.5779
C -1.5999 -1.5659 -1.5793
C -1.6018 -1.5633 -1.5766
C -1.5958 -1.5606 -1.5814
C -1.5940 -1.5552 -1.5788
C -1.5931 -1.5647 -1.5825
C -1.5985 -1.5580 -1.5849
C -1.5980 -1.5657 -1.5891
C -1.5973 -1.5723 -1.5891
C -1.6014 -1.5634 -1.5925
C -1.6023 -1.5691 -1.5953
C -1.6031 -1.5542 -1.5924
C -1.6068 -1.5512 -1.5951
C -1.6058 -1.5469 -1.5853
C -1.6034 -1.5473 -1.5882
C -1.6047 -1.5403 -1.5876
C -1.6016 -1.5494 -1.5845
C -1.6004 -1.5441 -1.5815
C -1.6027 -1.5712 -1.5809
C -1.6048 -1.5776 -1.5805
C -1.6020 -1.5692 -1.5831
C -1.5979 -1.5648 -1.5843
C -1.6017 -1.5734 -1.5869
C -1.5986 -1.5752 -1.5898
C -1.6053 -1.5796 -1.5889
C -1.6029 -1.5808 -1.5883
C -1.6074 -1.5838 -1.5935
C -1.6108 -1.5780 -1.5859
C -1.6081 -1.5702 -1.5860
C -1.6192 -1.5836 -1.5835
C -1.6021 -1.5715 -1.5853
C -1.6033 -1.5687 -1.5835
C -1.6012 -1.5723 -1.5866
C -1.5984 -1.5756 -1.5893
C -1.6002 -1.5778 -1.5885
C -1.5948 -1.5755 -1.5895
C -1.5972 -1.5752 -1.5895
C -1.6002 -1.5762 -1.5908
C -1.5931 -1.5759 -1.5909
C -1.5964 -1.5719 -1.5858
C -1.5961 -1.5715 -1.5861
C -1.5928 -1.5718 -1.5845
C -1.6014 -1.5691 -1.5848
C -1.6006 -1.5650 -1.5822
C -1.6082 -1.5702 -1.5846
C -1.6105 -1.5684 -1.5857
C -1.6104 -1.5724 -1.5833
C -1.6078 -1.5734 -1.5823
C -1.6178 -1.5744 -1.5847
C -1.6197 -1.5721 -1.5834
C -1.6181 -1.5821 -1.5881
C -1.6169 -1.5849 -1.5899
C -1.6236 -1.5839 -1.5883
C -1.6129 -1.5849 -1.5915
C -1.6065 -1.5843 -1.5924
C -1.6147 -1.5916 -1.5943
C -1.6142 -1.5797 -1.5900
C -1.6100 -1.5767 -1.5922
C -1.6190 -1.5778 -1.5866
C -1.6246 -1.5719 -1.5826
C -1.6303 -1.5694 -1.5816
C -1.6228 -1.5715 -1.5822
C -1.6171 -1.5739 -1.5825
C -1.6270 -1.5692 -1.5798
C -1.6310 -1.5653 -1.5775
C -1.6304 -1.5742 -1.5811
C -1.6328 -1.5714 -1.5795
C -1.6350 -1.5773 -1.5821
C -1.6301 -1.5716 -1.5837
C -1.6390 -1.5796 -1.5735
C -1.6358 -1.5841 -1.5894
C -1.6257 -1.5796 -1.5830
C -1.6234 -1.5820 -1.5847
C -1.6232 -1.5657 -1.5781
C -1.6243 -1.5657 -1.5778
C -1.6183 -1.5625 -1.5788
C -1.6183 -1.5615 -1.5787
C -1.6152 -1.5617 -1.5787
C -1.6142 -1.5664 -1.5787
C -1.6138 -1.5587 -1.5810
C -1.6157 -1.5583 -1.5755
C -1.6172 -1.5506 -1.5735
C -1.6124 -1.5637 -1.5766
C -1.6121 -1.5681 -1.5782
C -1.6108 -1.5631 -1.5756
C -1.6120 -1.5599 -1.5743
C -1.6119 -1.5671 -1.5761
C -1.6088 -1.5706 -1.5671
C -1.6178 -1.5541 -1.5791
C -1.6162 -1.5475 -1.5864
C -1.6188 -1.5528 -1.5716
C -1.6223 -1.5530 -1.5808
C -1.6107 -1.5785 -1.5853
C -1.6059 -1.5845 -1.5859
C -1.6065 -1.5607 -1.5757
C -1.6038 -1.5619 -1.5788
C -1.6043 -1.5550 -1.5729
C -1.6066 -1.5528 -1.5712
C -1.5989 -1.5498 -1.5734
C -1.5972 -1.5484 -1.5743
C -1.5990 -1.5442 -1.5701
C -1.5995 -1.5475 -1.5673
C -1.5955 -1.5372 -1.5747
C -1.6037 -1.5408 -1.5667
C -1.6116 -1.5416 -1.5707
C -1.6157 -1.5442 -1.5765
C -1.6117 -1.5377 -1.5667
C -1.6163 -1.5377 -1.5691
C -1.6044 -1.5342 -1.5590
C -1.6031 -1.5289 -1.5522
C -1.6072 -1.5276 -1.5535
C -1.5960 -1.5255 -1.5447
C -1.5942 -1.5215 -1.5394
C -1.5906 -1.5278 -1.5447
C -1.5840 -1.5247 -1.5392
C -1.5920 -1.5326 -1.5518
C -1.5875 -1.5339 -1.5515
C -1.5995 -1.5363 -1.5593
C -1.5954 -1.5526 -1.5751
C -1.5974 -1.5557 -1.5747
C -1.5901 -1.5510 -1.5764
C -1.5885 -1.5483 -1.5755
C -1.5855 -1.5529 -1.5780
C -1.5814 -1.5507 -1.5800
C -1.5844 -1.5522 -1.5769
C -1.5879 -1.5605 -1.5774
C -1.5895 -1.5633 -1.5780
C -1.5888 -1.5627 -1.5762
138
REAL frame=28
C -1.5988 -1.5670 -1.5770
C -1.6001 -1.5675 -1.5743
C -1.5995 -1.5621 -1.5800
C -1.5964 -1.5678 -1.5772
C -1.5997 -1.5721 -1.5775
C -1.5961 -1.5730 -1.5779
C -1.6015 -1.5750 -1.5769
C -1.6018 -1.5718 -1.5768
C -1.6059 -1.5747 -1.5747
C -1.5983 -1.5672 -1.5783
C -1.5944 -1.5638 -1.5785
C -1.5999 -1.5659 -1.5791
C -1.6015 -1.5631 -1.5766
C -1.5960 -1.5608 -1.5812
C -1.5939 -1.5553 -1.5788
C -1.5931 -1.5646 -1.5826
C -1.5986 -1.5578 -1.5849
C -1.5981 -1.5657 -1.5891
C -1.5974 -1.5723 -1.5889
C -1.6015 -1.5635 -1.5924
C -1.6027 -1.5689 -1.5952
C -1.6031 -1.5542 -1.5925
C -1.6068 -1.5512 -1.5951
C -1.6062 -1.5469 -1.5854
C -1.6036 -1.5474 -1.5883
C -1.6045 -1.5405 -1.5879
C -1.6017 -1.5492 -1.5845
C -1.6007 -1.5443 -1.5815
C -1.6026 -1.5713 -1.5809
C -1.6048 -1.5775 -1.5805
C -1.6020 -1.5693 -1.5831
C -1.5976 -1.5648 -1.5846
C -1.6017 -1.5734 -1.5870
C -1.5987 -1.5747 -1.5904
C -1.6053 -1.5796 -1.5887
C -1.6026 -1.5811 -1.5887
C -1.6074 -1.5838 -1.5933
C -1.6108 -1.5779 -1.5859
C -1.6081 -1.5703 -1.5862
C -1.6191 -1.5835 -1.5836
C -1.6021 -1.5715 -1.5854
C -1.6032 -1.5687 -1.5835
C -1.6012 -1.5720 -1.5865
C -1.5986 -1.5755 -1.5893
C -1.6001 -1.5784 -1.5887
C -1.5949 -1.5753 -1.5896
C -1.5971 -1.5751 -1.5894
C -1.6004 -1.5767 -1.5905
C -1.5932 -1.5760 -1.5907
C -1.5965 -1.5718 -1.5857
C -1.5966 -1.5713 -1.5856
C -1.5929 -1.5717 -1.5846
C -1.6015 -1.5691 -1.5848
C -1.6007 -1.5656 -1.5818
C -1.6083 -1.5703 -1.5846
C -1.6105 -1.5684 -1.5857
C -1.6105 -1.5725 -1.5833
C -1.6077 -1.5731 -1.5816
C -1.6177 -1.5744 -1.5848
C -1.6191 -1.5723 -1.5835
C -1.6181 -1.5820 -1.5881
C -1.6167 -1.5850 -1.5901
C -1.6236 -1.5837 -1.5884
C -1.6130 -1.5850 -1.5915
C -1.6060 -1.5838 -1.5928
C -1.6147 -1.5916 -1.5945
C -1.6142 -1.5798 -1.5904
C -1.6101 -1.5768 -1.5922
C -1.6192 -1.5779 -1.5865
C -1.6246 -1.5718 -1.5825
C -1.6303 -1.5693 -1.5815
C -1.6229 -1.5715 -1.5821
C -1.6176 -1.5740 -1.5825
C -1.6272 -1.5690 -1.5800
C -1.6309 -1.5653 -1.5774
C -1.6304 -1.5741 -1.5812
C -1.6332 -1.5715 -1.5796
C -1.6349 -1.5773 -1.5820
C -1.6302 -1.5714 -1.5839
C -1.6390 -1.5800 -1.5739
C -1.6349 -1.5844 -1.5891
C -1.6258 -1.5796 -1.5830
C -1.6234 -1.5815 -1.5847
C -1.6233 -1.5658 -1.5782
C -1.6242 -1.5656 -1.5778
C -1.6183 -1.5623 -1.5788
C -1.6182 -1.5616 -1.5789
C -1.6152 -1.5616 -1.5788
C -1.6140 -1.5666 -1.5784
C -1.6136 -1.5588 -1.5814
C -1.6156 -1.5583 -1.5756
C -1.6172 -1.5506 -1.5735
C -1.6123 -1.5637 -1.5767
C -1.6120 -1.5676 -1.5785
C -1.6107 -1.5631 -1.5756
C -1.6118 -1.5598 -1.5745
C -1.6118 -1.5670 -1.5762
C -1.6092 -1.5704 -1.5667
C -1.6179 -1.5541 -1.5791
C -1.6164 -1.5476 -1.5867
C -1.6188 -1.5532 -1.5716
C -1.6222 -1.5532 -1.5804
C -1.6107 -1.5787 -1.5854
C -1.6064 -1.5845 -1.5868
C -1.6065 -1.5609 -1.5758
C -1.6038 -1.5617 -1.5787
C -1.6043 -1.5552 -1.5729
C -1.6068 -1.5529 -1.5715
C -1.5989 -1.5498 -1.5733
C -1.5974 -1.5486 -1.5745
C -1.5990 -1.5442 -1.5702
C -1.5994 -1.5481 -1.5678
C -1.5954 -1.5374 -1.5742
C -1.6037 -1.5407 -1.5666
C -1.6115 -1.5417 -1.5706
C -1.6157 -1.5450 -1.5764
C -1.6117 -1.5376 -1.5667
C -1.6166 -1.5376 -1.5691
C -1.6045 -1.5341 -1.5589
C -1.6031 -1.5290 -1.5521
C -1.6074 -1.5279 -1.5539
C -1.5960 -1.5256 -1.5447
C -1.5943 -1.5215 -1.5394
C -1.5907 -1.5276 -1.5446
C -1.5838 -1.5248 -1.5393
C -1.5920 -1.5326 -1.5518
C -1.5877 -1.5340 -1.5513
C -1.5996 -1.5363 -1.5593
C -1.5954 -1.5526 -1.5748
C -1.5974 -1.5555 -1.5748
C -1.5902 -1.5509 -1.5764
C -1.5882 -1.5488 -1.5758
C -1.5856 -1.5529 -1.5779
C -1.5814 -1.5503 -1.5798
C -1.5841 -1.5525 -1.5770
C -1.5879 -1.5607 -1.5774
C -1.5895 -1.5633 -1.5781
C -1.5889 -1.5628 -1.5762
138
REAL frame=29
C -1.5988 -1.5670 -1.5771
C -1.5996 -1.5670 -1.5742
C -1.5994 -1.5622 -1.5798
C -1.5962 -1.5676 -1.5769
C -1.5997 -1.5721 -1.5774
C -1.5963 -1.5729 -1.5785
C -1.6017 -1.5744 -1.5767
C -1.6018 -1.5718 -1.5769
C -1.6059 -1.5746 -1.5747
C -1.5982 -1.5672 -1.5782
C -1.5943 -1.5640 -1.5791
C -1.5999 -1.5658 -1.5789
C -1.6013 -1.5630 -1.5765
C -1.5961 -1.5609 -1.5811
C -1.5937 -1.5554 -1.5790
C -1.5930 -1.5645 -1.5827
C -1.5987 -1.5578 -1.5850
C -1.5981 -1.5657 -1.5891
C -1.5973 -1.5724 -1.5887
C -1.6016 -1.5634 -1.5923
C -1.6030 -1.5685 -1.5950
C -1.6032 -1.5543 -1.5925
C -1.6068 -1.5511 -1.5952
C -1.6065 -1.5468 -1.5855
C -1.6037 -1.5475 -1.5883
C -1.6043 -1.5407 -1.5882
C -1.6017 -1.5490 -1.5846
C -1.6011 -1.5443 -1.5815
C -1.6026 -1.5715 -1.5810
C -1.6047 -1.5774 -1.5805
C -1.6019 -1.5693 -1.5831
C -1.5976 -1.5647 -1.5850
C -1.6018 -1.5734 -1.5872
C -1.5986 -1.5741 -1.5910
C -1.6053 -1.5795 -1.5885
C -1.6023 -1.5813 -1.5889
C -1.6072 -1.5838 -1.5930
C -1.6108 -1.5777 -1.5859
C -1.6081 -1.5704 -1.5864
C -1.6190 -1.5835 -1.5836
C -1.6020 -1.5714 -1.5856
C -1.6031 -1.5687 -1.5835
C -1.6011 -1.5718 -1.5864
C -1.5987 -1.5755 -1.5892
C -1.6003 -1.5788 -1.5895
C -1.5949 -1.5752 -1.5896
C -1.5971 -1.5751 -1.5893
C -1.6005 -1.5770 -1.5902
C -1.5933 -1.5763 -1.5905
C -1.5966 -1.5718 -1.5857
C -1.5971 -1.5711 -1.5853
C -1.5929 -1.5716 -1.5845
C -1.6016 -1.5691 -1.5847
C -1.6009 -1.5660 -1.5814
C -1.6083 -1.5703 -1.5846
C -1.6105 -1.5684 -1.5857
C -1.6106 -1.5726 -1.5833
C -1.6075 -1.5727 -1.5811
C -1.6177 -1.5745 -1.5847
C -1.6185 -1.5725 -1.5837
C -1.6181 -1.5819 -1.5881
C -1.6165 -1.5849 -1.5901
C -1.6236 -1.5836 -1.5885
C -1.6130 -1.5852 -1.5914
C -1.6057 -1.5835 -1.5931
C -1.6147 -1.5917 -1.5945
C -1.6142 -1.5798 -1.5907
C -1.6101 -1.5769 -1.5921
C -1.6193 -1.5779 -1.5864
C -1.6246 -1.5718 -1.5825
C -1.6304 -1.5693 -1.5813
C -1.6229 -1.5715 -1.5820
C -1.6181 -1.5740 -1.5827
C -1.6273 -1.5689 -1.5802
C -1.6307 -1.5652 -1.5776
C -1.6305 -1.5741 -1.5813
C -1.6336 -1.5717 -1.5797
C -1.6347 -1.5773 -1.5819
C -1.6306 -1.5713 -1.5840
C -1.6391 -1.5803 -1.5744
C -1.6344 -1.5846 -1.5889
C -1.6259 -1.5796 -1.5829
C -1.6235 -1.5811 -1.5847
C -1.6234 -1.5658 -1.5783
C -1.6242 -1.5655 -1.5778
C -1.6183 -1.5623 -1.5788
C -1.6178 -1.5618 -1.5790
C -1.6152 -1.5615 -1.5789
C -1.6139 -1.5666 -1.5783
C -1.6134 -1.5590 -1.5817
C -1.6155 -1.5582 -1.5756
C -1.6172 -1.5506 -1.5736
C -1.6122 -1.5637 -1.5768
C -1.6118 -1.5674 -1.5788
C -1.6107 -1.5630 -1.5756
C -1.6116 -1.5598 -1.5744
C -1.6118 -1.5669 -1.5762
C -1.6097 -1.5702 -1.5664
C -1.6180 -1.5541 -1.5791
C -1.6166 -1.5478 -1.5870
C -1.6187 -1.5536 -1.5716
C -1.6223 -1.5531 -1.5801
C -1.6107 -1.5788 -1.5854
C -1.6069 -1.5846 -1.5874
C -1.6064 -1.5610 -1.5758
C -1.6037 -1.5616 -1.5787
C -1.6044 -1.5555 -1.5730
C -1.6068 -1.5530 -1.5716
C -1.5989 -1.5499 -1.5733
C -1.5978 -1.5487 -1.5747
C -1.5990 -1.5442 -1.5703
C -1.5991 -1.5486 -1.5683
C -1.5953 -1.5378 -1.5734
C -1.6036 -1.5406 -1.5666
C -1.6114 -1.5418 -1.5705
C -1.6156 -1.5459 -1.5762
C -1.6117 -1.5375 -1.5666
C -1.6169 -1.5375 -1.5688
C -1.6046 -1.5340 -1.5589
C -1.6031 -1.5292 -1.5521
C -1.6077 -1.5281 -1.5539
C -1.5960 -1.5256 -1.5447
C -1.5943 -1.5215 -1.5394
C -1.5907 -1.5274 -1.5445
C -1.5837 -1.5250 -1.5394
C -1.5919 -1.5327 -1.5519
C -1.5879 -1.5340 -1.5512
C -1.5997 -1.5362 -1.5593
C -1.5953 -1.5526 -1.5746
C -1.5974 -1.5554 -1.5749
C -1.5902 -1.5508 -1.5764
C -1.5881 -1.5491 -1.5760
C -1.5857 -1.5529 -1.5778
C -1.5815 -1.5497 -1.5796
C -1.5839 -1.5527 -1.5771
C -1.5879 -1.5609 -1.5773
C -1.5895 -1.5633 -1.5782
C -1.5890 -1.5629 -1.5762
138
REAL frame=30
C -1.5988 -1.5670 -1.5772
C -1.5993 -1.5666 -1.5742
C -1.5992 -1.5624 -1.5796
C -1.5960 -1.5672 -1.5764
C -1.5996 -1.5720 -1.5773
C -1.5965 -1.5726 -1.5792
C -1.6019 -1.5738 -1.5763
C -1.6018 -1.5717 -1.5770
C -1.6060 -1.5746 -1.5747
C -1.5981 -1.5674 -1.5780
C -1.5942 -1.5643 -1.5798
C -1.5999 -1.5657 -1.5787
C -1.6012 -1.5629 -1.5763
C -1.5962 -1.5610 -1.5809
C -1.5936 -1.5554 -1.5791
C -1.5931 -1.5644 -1.5827
C -1.5988 -1.5580 -1.5850
C -1.5982 -1.5656 -1.5891
C -1.5971 -1.5725 -1.5887
C -1.6017 -1.5634 -1.5923
C -1.6033 -1.5681 -1.5950
C -1.6032 -1.5544 -1.5925
C -1.6068 -1.5511 -1.5952
C -1.6068 -1.5468 -1.5856
C -1.6038 -1.5476 -1.5884
C -1.6042 -1.5408 -1.5884
C -1.6017 -1.5489 -1.5846
C -1.6015 -1.5442 -1.5814
C -1.6027 -1.5716 -1.5811
C -1.6047 -1.5773 -1.5805
C -1.6018 -1.5694 -1.5831
C -1.5976 -1.5644 -1.5852
C -1.6019 -1.5735 -1.5873
C -1.5985 -1.5736 -1.5915
C -1.6053 -1.5795 -1.5884
C -1.6023 -1.5814 -1.5889
C -1.6069 -1.5839 -1.5926
C -1.6109 -1.5776 -1.5859
C -1.6081 -1.5705 -1.5866
C -1.6189 -1.5834 -1.5836
C -1.6020 -1.5713 -1.5858
C -1.6030 -1.5687 -1.5835
C -1.6011 -1.5716 -1.5863
C -1.5988 -1.5754 -1.5891
C -1.6005 -1.5791 -1.5907
C -1.5950 -1.5750 -1.5896
C -1.5971 -1.5751 -1.5892
C -1.6006 -1.5771 -1.5900
C -1.5935 -1.5765 -1.5903
C -1.5967 -1.5717 -1.5857
C -1.5975 -1.5710 -1.5851
C -1.5930 -1.5713 -1.5844
C -1.6017 -1.5693 -1.5846
C -1.6010 -1.5663 -1.5811
C -1.6083 -1.5702 -1.5847
C -1.6105 -1.5684 -1.5856
C -1.6107 -1.5727 -1.5833
C -1.6071 -1.5724 -1.5808
C -1.6177 -1.5745 -1.5846
C -1.6182 -1.5727 -1.5839
C -1.6181 -1.5819 -1.5882
C -1.6163 -1.5847 -1.5897
C -1.6235 -1.5835 -1.5885
C -1.6130 -1.5852 -1.5915
C -1.6055 -1.5833 -1.5932
C -1.6147 -1.5920 -1.5944
C -1.6143 -1.5798 -1.5908
C -1.6101 -1.5770 -1.5921
C -1.6194 -1.5780 -1.5863
C -1.6246 -1.5717 -1.5826
C -1.6304 -1.5692 -1.5812
C -1.6229 -1.5715 -1.5818
C -1.6186 -1.5739 -1.5831
C -1.6274 -1.5688 -1.5803
C -1.6305 -1.5651 -1.5780
C -1.6306 -1.5740 -1.5813
C -1.6338 -1.5718 -1.5797
C -1.6345 -1.5774 -1.5818
C -1.6312 -1.5712 -1.5839
C -1.6392 -1.5803 -1.5751
C -1.6344 -1.5847 -1.5889
C -1.6260 -1.5796 -1.5829
C -1.6237 -1.5811 -1.5847
C -1.6234 -1.5657 -1.5786
C -1.6242 -1.5655 -1.5778
C -1.6183 -1.5622 -1.5787
C -1.6171 -1.5621 -1.5791
C -1.6153 -1.5613 -1.5790
C -1.6140 -1.5665 -1.5784
C -1.6133 -1.5591 -1.5818
C -1.6153 -1.5581 -1.5757
C -1.6172 -1.5506 -1.5736
C -1.6121 -1.5636 -1.5769
C -1.6115 -1.5675 -1.5790
C -1.6106 -1.5630 -1.5757
C -1.6114 -1.5601 -1.5742
C -1.6118 -1.5669 -1.5763
C -1.6099 -1.5701 -1.5662
C -1.6180 -1.5541 -1.5790
C -1.6170 -1.5480 -1.5872
C -1.6186 -1.5538 -1.5717
C -1.6225 -1.5529 -1.5798
C -1.6107 -1.5789 -1.5855
C -1.6071 -1.5846 -1.5877
C -1.6062 -1.5610 -1.5757
C -1.6037 -1.5615 -1.5787
C -1.6044 -1.5557 -1.5730
C -1.6066 -1.5533 -1.5716
C -1.5989 -1.5500 -1.5732
C -1.5982 -1.5487 -1.5748
C -1.5990 -1.5441 -1.5704
C -1.5988 -1.5489 -1.5686
C -1.5953 -1.5382 -1.5727
C -1.6034 -1.5406 -1.5667
C -1.6113 -1.5418 -1.5705
C -1.6156 -1.5464 -1.5760
C -1.6117 -1.5374 -1.5665
C -1.6172 -1.5374 -1.5685
C -1.6047 -1.5339 -1.5589
C -1.6031 -1.5293 -1.5520
C -1.6078 -1.5282 -1.5534
C -1.5961 -1.5256 -1.5447
C -1.5944 -1.5216 -1.5394
C -1.5908 -1.5273 -1.5445
C -1.5838 -1.5251 -1.5394
C -1.5919 -1.5326 -1.5519
C -1.5881 -1.5340 -1.5510
C -1.5997 -1.5361 -1.5592
C -1.5952 -1.5526 -1.5743
C -1.5974 -1.5553 -1.5749
C -1.5903 -1.5508 -1.5764
C -1.5882 -1.5490 -1.5761
C -1.5858 -1.5529 -1.5777
C -1.5816 -1.5492 -1.5796
C -1.5837 -1.5528 -1.5770
C -1.5879 -1.5610 -1.5774
C -1.5895 -1.5633 -1.5783
C -1.5891 -1.5630 -1.5762
138
REAL frame=31
C -1.5998 -1.5681 -1.5783
C -1.6003 -1.5676 -1.5754
C -1.5999 -1.5639 -1.5809
C -1.5969 -1.5678 -1.5769
C -1.6006 -1.5730 -1.5784
C -1.5979 -1.5734 -1.5810
C -1.6029 -1.5744 -1.5770
C -1.6028 -1.5728 -1.5782
C -1.6071 -1.5756 -1.5758
C -1.5990 -1.5686 -1.5790
C -1.5953 -1.5657 -1.5813
C -1.6010 -1.5667 -1.5796
C -1.6024 -1.5639 -1.5772
C -1.5973 -1.5621 -1.5819
C -1.5945 -1.5564 -1.5803
C -1.5943 -1.5656 -1.5837
C -1.6000 -1.5593 -1.5861
C -1.5994 -1.5667 -1.5901
C -1.5979 -1.5737 -1.5898
C -1.6028 -1.5644 -1.5935
C -1.6045 -1.5689 -1.5961
C -1.6044 -1.5555 -1.5936
C -1.6079 -1.5522 -1.5963
C -1.6082 -1.5479 -1.5868
C -1.6049 -1.5486 -1.5895
C -1.6054 -1.5419 -1.5895
C -1.6028 -1.5498 -1.5856
C -1.6029 -1.5449 -1.5823
C -1.6037 -1.5728 -1.5822
C -1.6057 -1.5783 -1.5816
C -1.6027 -1.5706 -1.5842
C -1.5988 -1.5654 -1.5862
C -1.6029 -1.5747 -1.5885
C -1.5994 -1.5745 -1.5929
C -1.6064 -1.5805 -1.5893
C -1.6036 -1.5825 -1.5897
C -1.6076 -1.5851 -1.5933
C -1.6119 -1.5786 -1.5871
C -1.6090 -1.5717 -1.5879
C -1.6199 -1.5844 -1.5847
C -1.6030 -1.5722 -1.5869
C -1.6040 -1.5698 -1.5846
C -1.6021 -1.5725 -1.5873
C -1.5999 -1.5763 -1.5900
C -1.6017 -1.5800 -1.5930
C -1.5960 -1.5759 -1.5905
C -1.5982 -1.5762 -1.5901
C -1.6016 -1.5781 -1.5910
C -1.5948 -1.5778 -1.5912
C -1.5979 -1.5727 -1.5867
C -1.5988 -1.5721 -1.5862
C -1.5940 -1.5721 -1.5853
C -1.6028 -1.5705 -1.5854
C -1.6022 -1.5674 -1.5821
C -1.6094 -1.5712 -1.5858
C -1.6116 -1.5696 -1.5866
C -1.6118 -1.5739 -1.5844
C -1.6077 -1.5734 -1.5818
C -1.6188 -1.5756 -1.5856
C -1.6191 -1.5741 -1.5852
C -1.6192 -1.5830 -1.5895
C -1.6173 -1.5855 -1.5903
C -1.6245 -1.5845 -1.5895
C -1.6140 -1.5863 -1.5926
C -1.6066 -1.5846 -1.5941
C -1.6157 -1.5935 -1.5954
C -1.6156 -1.5810 -1.5918
C -1.6111 -1.5782 -1.5932
C -1.6205 -1.5792 -1.5874
C -1.6255 -1.5728 -1.5837
C -1.6316 -1.5703 -1.5821
C -1.6240 -1.5727 -1.5828
C -1.6202 -1.5750 -1.5844
C -1.6285 -1.5699 -1.5814
C -1.6314 -1.5660 -1.5797
C -1.6317 -1.5752 -1.5824
C -1.6348 -1.5729 -1.5808
C -1.6354 -1.5786 -1.5830
C -1.6329 -1.5724 -1.5849
C -1.6403 -1.5813 -1.5769
C -1.6358 -1.5858 -1.5901
C -1.6271 -1.5806 -1.5841
C -1.6249 -1.5825 -1.5858
C -1.6245 -1.5668 -1.5801
C -1.6252 -1.5665 -1.5790
C -1.6194 -1.5633 -1.5798
C -1.6176 -1.5634 -1.5802
C -1.6164 -1.5623 -1.5803
C -1.6154 -1.5673 -1.5799
C -1.6143 -1.5604 -1.5829
C -1.6162 -1.5590 -1.5770
C -1.6183 -1.5517 -1.5747
C -1.6131 -1.5646 -1.5782
C -1.6122 -1.5689 -1.5802
C -1.6115 -1.5640 -1.5768
C -1.6124 -1.5616 -1.5750
C -1.6129 -1.5680 -1.5774
C -1.6109 -1.5711 -1.5673
C -1.6191 -1.5552 -1.5802
C -1.6184 -1.5493 -1.5884
C -1.6195 -1.5548 -1.5729
C -1.6238 -1.5537 -1.5809
C -1.6118 -1.5801 -1.5867
C -1.6081 -1.5859 -1.5887
C -1.6072 -1.5620 -1.5768
C -1.6046 -1.5626 -1.5799
C -1.6056 -1.5570 -1.5743
C -1.6075 -1.5547 -1.5725
C -1.6000 -1.5513 -1.5743
C -1.5996 -1.5498 -1.5760
C -1.6000 -1.5452 -1.5716
C -1.5997 -1.5501 -1.5699
C -1.5964 -1.5397 -1.5733
C -1.6044 -1.5418 -1.5679
C -1.6123 -1.5430 -1.5716
C -1.6167 -1.5477 -1.5770
C -1.6128 -1.5384 -1.5676
C -1.6185 -1.5384 -1.5692
C -1.6059 -1.5350 -1.5602
C -1.6041 -1.5305 -1.5533
C -1.6089 -1.5293 -1.5539
C -1.5972 -1.5268 -1.5460
C -1.5956 -1.5228 -1.5407
C -1.5918 -1.5285 -1.5457
C -1.5852 -1.5263 -1.5406
C -1.5930 -1.5337 -1.5531
C -1.5892 -1.5351 -1.5522
C -1.6008 -1.5371 -1.5601
C -1.5961 -1.5536 -1.5753
C -1.5984 -1.5563 -1.5762
C -1.5913 -1.5518 -1.5775
C -1.5895 -1.5497 -1.5773
C -1.5869 -1.5540 -1.5787
C -1.5828 -1.5499 -1.5807
C -1.5845 -1.5539 -1.5780
C -1.5889 -1.5621 -1.5785
C -1.5905 -1.5644 -1.5794
C -1.5903 -1.5642 -1.5773
138
REAL frame=32
C -1.5998 -1.5681 -1.5783
C -1.6004 -1.5675 -1.5755
C -1.5996 -1.5643 -1.5813
C -1.5968 -1.5675 -1.5764
C -1.6006 -1.5729 -1.5785
C -1.5982 -1.5732 -1.5816
C -1.6029 -1.5742 -1.5765
C -1.6027 -1.5727 -1.5783
C -1.6072 -1.5755 -1.5758
C -1.5989 -1.5687 -1.5789
C -1.5955 -1.5661 -1.5816
C -1.6010 -1.5666 -1.5794
C -1.6027 -1.5639 -1.5769
C -1.5973 -1.5620 -1.5819
C -1.5944 -1.5563 -1.5804
C -1.5946 -1.5658 -1.5834
C -1.6001 -1.5596 -1.5861
C -1.5995 -1.5666 -1.5900
C -1.5977 -1.5737 -1.5900
C -1.6029 -1.5644 -1.5936
C -1.6045 -1.5688 -1.5962
C -1.6045 -1.5555 -1.5936
C -1.6079 -1.5523 -1.5963
C -1.6084 -1.5479 -1.5869
C -1.6049 -1.5485 -1.5896
C -1.6055 -1.5417 -1.5894
C -1.6028 -1.5498 -1.5855
C -1.6032 -1.5442 -1.5823
C -1.6037 -1.5728 -1.5821
C -1.6057 -1.5783 -1.5816
C -1.6026 -1.5707 -1.5844
C -1.5990 -1.5654 -1.5860
C -1.6028 -1.5747 -1.5887
C -1.5993 -1.5746 -1.5929
C -1.6064 -1.5805 -1.5893
C -1.6041 -1.5824 -1.5893
C -1.6073 -1.5852 -1.5929
C -1.6120 -1.5785 -1.5871
C -1.6090 -1.5717 -1.5880
C -1.6198 -1.5842 -1.5847
C -1.6029 -1.5721 -1.5869
C -1.6039 -1.5698 -1.5845
C -1.6021 -1.5725 -1.5873
C -1.5999 -1.5762 -1.5899
C -1.6018 -1.5796 -1.5939
C -1.5959 -1.5758 -1.5902
C -1.5982 -1.5763 -1.5900
C -1.6015 -1.5777 -1.5910
C -1.5949 -1.5779 -1.5911
C -1.5980 -1.5726 -1.5867
C -1.5989 -1.5721 -1.5865
C -1.5940 -1.5718 -1.5851
C -1.6029 -1.5707 -1.5853
C -1.6022 -1.5672 -1.5821
C -1.6094 -1.5711 -1.5858
C -1.6117 -1.5697 -1.5866
C -1.6119 -1.5739 -1.5845
C -1.6072 -1.5732 -1.5819
C -1.6188 -1.5756 -1.5855
C -1.6194 -1.5741 -1.5853
C -1.6192 -1.5830 -1.5898
C -1.6174 -1.5850 -1.5898
C -1.6244 -1.5845 -1.5894
C -1.6140 -1.5862 -1.5927
C -1.6067 -1.5849 -1.5937
C -1.6155 -1.5940 -1.5952
C -1.6158 -1.5810 -1.5916
C -1.6111 -1.5783 -1.5933
C -1.6205 -1.5794 -1.5874
C -1.6254 -1.5727 -1.5837
C -1.6316 -1.5701 -1.5820
C -1.6240 -1.5727 -1.5827
C -1.6206 -1.5750 -1.5845
C -1.6284 -1.5698 -1.5813
C -1.6314 -1.5658 -1.5803
C -1.6318 -1.5752 -1.5824
C -1.6347 -1.5729 -1.5808
C -1.6352 -1.5786 -1.5830
C -1.6333 -1.5724 -1.5845
C -1.6403 -1.5812 -1.5775
C -1.6364 -1.5854 -1.5903
C -1.6272 -1.5806 -1.5841
C -1.6252 -1.5829 -1.5857
C -1.6245 -1.5666 -1.5803
C -1.6252 -1.5665 -1.5791
C -1.6195 -1.5633 -1.5797
C -1.6173 -1.5636 -1.5801
C -1.6164 -1.5622 -1.5803
C -1.6160 -1.5670 -1.5805
C -1.6143 -1.5603 -1.5829
C -1.6160 -1.5589 -1.5772
C -1.6183 -1.5517 -1.5747
C -1.6130 -1.5645 -1.5783
C -1.6118 -1.5693 -1.5803
C -1.6114 -1.5640 -1.5768
C -1.6124 -1.5620 -1.5746
C -1.6129 -1.5680 -1.5774
C -1.6107 -1.5712 -1.5674
C -1.6192 -1.5553 -1.5802
C -1.6188 -1.5494 -1.5883
C -1.6193 -1.5545 -1.5730
C -1.6241 -1.5534 -1.5809
C -1.6119 -1.5802 -1.5868
C -1.6077 -1.5861 -1.5882
C -1.6071 -1.5618 -1.5767
C -1.6045 -1.5626 -1.5800
C -1.6057 -1.5572 -1.5743
C -1.6075 -1.5551 -1.5722
C -1.6000 -1.5514 -1.5743
C -1.5998 -1.5498 -1.5761
C -1.6000 -1.5451 -1.5717
C -1.5996 -1.5497 -1.5696
C -1.5964 -1.5399 -1.5729
C -1.6042 -1.5420 -1.5679
C -1.6122 -1.5431 -1.5716
C -1.6167 -1.5474 -1.5771
C -1.6128 -1.5384 -1.5674
C -1.6187 -1.5383 -1.5687
C -1.6061 -1.5349 -1.5602
C -1.6042 -1.5306 -1.5533
C -1.6089 -1.5292 -1.5530
C -1.5972 -1.5268 -1.5460
C -1.5957 -1.5227 -1.5407
C -1.5918 -1.5285 -1.5458
C -1.5856 -1.5262 -1.5404
C -1.5931 -1.5336 -1.5530
C -1.5891 -1.5350 -1.5524
C -1.6008 -1.5369 -1.5600
C -1.5960 -1.5535 -1.5751
C -1.5984 -1.5563 -1.5762
C -1.5913 -1.5518 -1.5775
C -1.5899 -1.5492 -1.5772
C -1.5870 -1.5542 -1.5785
C -1.5830 -1.5497 -1.5808
C -1.5844 -1.5538 -1.5776
C -1.5889 -1.5620 -1.5786
C -1.5905 -1.5644 -1.5795
C -1.5903 -1.5643 -1.5773
138
REAL frame=33
C -1.5997 -1.5681 -1.5781
C -1.6007 -1.5676 -1.5758
C -1.5992 -1.5648 -1.5818
C -1.5969 -1.5674 -1.5760
C -1.6006 -1.5727 -1.5786
C -1.5985 -1.5732 -1.5819
C -1.6029 -1.5741 -1.5761
C -1.6027 -1.5727 -1.5783
C -1.6072 -1.5754 -1.5758
C -1.5988 -1.5688 -1.5789
C -1.5957 -1.5666 -1.5817
C -1.6011 -1.5666 -1.5792
C -1.6031 -1.5639 -1.5766
C -1.5973 -1.5620 -1.5820
C -1.5944 -1.5561 -1.5805
C -1.5950 -1.5661 -1.5830
C -1.6002 -1.5599 -1.5860
C -1.5997 -1.5666 -1.5899
C -1.5974 -1.5737 -1.5903
C -1.6029 -1.5643 -1.5937
C -1.6044 -1.5687 -1.5964
C -1.6046 -1.5554 -1.5936
C -1.6079 -1.5523 -1.5963
C -1.6085 -1.5480 -1.5870
C -1.6049 -1.5484 -1.5897
C -1.6058 -1.5414 -1.5894
C -1.6029 -1.5500 -1.5855
C -1.6034 -1.5435 -1.5823
C -1.6036 -1.5727 -1.5820
C -1.6057 -1.5782 -1.5817
C -1.6024 -1.5708 -1.5845
C -1.5992 -1.5655 -1.5856
C -1.6027 -1.5747 -1.5888
C -1.5992 -1.5751 -1.5928
C -1.6065 -1.5805 -1.5893
C -1.6047 -1.5824 -1.5888
C -1.6071 -1.5853 -1.5925
C -1.6119 -1.5784 -1.5872
C -1.6089 -1.5718 -1.5881
C -1.6198 -1.5841 -1.5847
C -1.6029 -1.5720 -1.5868
C -1.6038 -1.5699 -1.5845
C -1.6022 -1.5726 -1.5873
C -1.5999 -1.5761 -1.5899
C -1.6020 -1.5790 -1.5944
C -1.5958 -1.5756 -1.5898
C -1.5983 -1.5764 -1.5899
C -1.6013 -1.5773 -1.5911
C -1.5951 -1.5780 -1.5910
C -1.5981 -1.5725 -1.5867
C -1.5989 -1.5722 -1.5869
C -1.5940 -1.5714 -1.5850
C -1.6029 -1.5707 -1.5851
C -1.6022 -1.5668 -1.5822
C -1.6094 -1.5710 -1.5858
C -1.6118 -1.5697 -1.5865
C -1.6119 -1.5740 -1.5845
C -1.6069 -1.5732 -1.5820
C -1.6189 -1.5755 -1.5854
C -1.6198 -1.5740 -1.5852
C -1.6192 -1.5830 -1.5899
C -1.6177 -1.5847 -1.5895
C -1.6243 -1.5845 -1.5894
C -1.6139 -1.5861 -1.5929
C -1.6070 -1.5852 -1.5932
C -1.6154 -1.5944 -1.5950
C -1.6160 -1.5811 -1.5914
C -1.6111 -1.5784 -1.5934
C -1.6205 -1.5795 -1.5874
C -1.6253 -1.5726 -1.5835
C -1.6317 -1.5700 -1.5819
C -1.6241 -1.5727 -1.5828
C -1.6210 -1.5752 -1.5843
C -1.6283 -1.5698 -1.5812
C -1.6314 -1.5656 -1.5808
C -1.6318 -1.5753 -1.5823
C -1.6345 -1.5728 -1.5807
C -1.6351 -1.5787 -1.5832
C -1.6335 -1.5726 -1.5841
C -1.6403 -1.5812 -1.5778
C -1.6370 -1.5849 -1.5905
C -1.6273 -1.5805 -1.5841
C -1.6255 -1.5835 -1.5856
C -1.6245 -1.5665 -1.5805
C -1.6252 -1.5664 -1.5793
C -1.6195 -1.5633 -1.5796
C -1.6173 -1.5635 -1.5801
C -1.6165 -1.5621 -1.5804
C -1.6166 -1.5665 -1.5811
C -1.6144 -1.5601 -1.5828
C -1.6158 -1.5587 -1.5774
C -1.6184 -1.5518 -1.5747
C -1.6128 -1.5644 -1.5784
C -1.6114 -1.5698 -1.5803
C -1.6112 -1.5639 -1.5768
C -1.6125 -1.5623 -1.5744
C -1.6130 -1.5681 -1.5775
C -1.6103 -1.5713 -1.5677
C -1.6193 -1.5554 -1.5802
C -1.6191 -1.5494 -1.5881
C -1.6193 -1.5540 -1.5731
C -1.6244 -1.5532 -1.5809
C -1.6121 -1.5803 -1.5868
C -1.6072 -1.5863 -1.5875
C -1.6070 -1.5617 -1.5767
C -1.6044 -1.5626 -1.5800
C -1.6058 -1.5573 -1.5743
C -1.6075 -1.5556 -1.5719
C -1.6000 -1.5515 -1.5743
C -1.5998 -1.5498 -1.5760
C -1.6000 -1.5450 -1.5717
C -1.5998 -1.5492 -1.5692
C -1.5965 -1.5401 -1.5729
C -1.6041 -1.5422 -1.5679
C -1.6121 -1.5431 -1.5716
C -1.6167 -1.5468 -1.5772
C -1.6128 -1.5384 -1.5673
C -1.6189 -1.5383 -1.5683
C -1.6063 -1.5349 -1.5603
C -1.6042 -1.5306 -1.5533
C -1.6088 -1.5291 -1.5522
C -1.5972 -1.5268 -1.5460
C -1.5958 -1.5227 -1.5407
C -1.5917 -1.5287 -1.5460
C -1.5861 -1.5261 -1.5402
C -1.5932 -1.5335 -1.5528
C -1.5890 -1.5349 -1.5526
C -1.6008 -1.5368 -1.5599
C -1.5959 -1.5535 -1.5750
C -1.5984 -1.5563 -1.5762
C -1.5913 -1.5519 -1.5775
C -1.5904 -1.5487 -1.5772
C -1.5871 -1.5543 -1.5784
C -1.5832 -1.5498 -1.5810
C -1.5844 -1.5536 -1.5773
C -1.5889 -1.5620 -1.5787
C -1.5905 -1.5645 -1.5795
C -1.5904 -1.5643 -1.5773
138
REAL frame=34
C -1.5996 -1.5680 -1.5780
C -1.6010 -1.5675 -1.5762
C -1.5990 -1.5652 -1.5823
C -1.5971 -1.5676 -1.5759
C -1.6007 -1.5726 -1.5787
C -1.5988 -1.5733 -1.5819
C -1.6028 -1.5742 -1.5759
C -1.6027 -1.5727 -1.5783
C -1.6072 -1.5754 -1.5758
C -1.5987 -1.5689 -1.5788
C -1.5959 -1.5671 -1.5816
C -1.6011 -1.5666 -1.5791
C -1.6035 -1.5640 -1.5763
C -1.5972 -1.5619 -1.5820
C -1.5944 -1.5559 -1.5805
C -1.5954 -1.5664 -1.5827
C -1.6002 -1.5600 -1.5858
C -1.5999 -1.5666 -1.5899
C -1.5972 -1.5737 -1.5905
C -1.6030 -1.5642 -1.5938
C -1.6042 -1.5689 -1.5966
C -1.6048 -1.5553 -1.5936
C -1.6079 -1.5524 -1.5964
C -1.6087 -1.5481 -1.5870
C -1.6048 -1.5482 -1.5898
C -1.6062 -1.5411 -1.5893
C -1.6029 -1.5501 -1.5855
C -1.6036 -1.5430 -1.5824
C -1.6036 -1.5726 -1.5818
C -1.6057 -1.5782 -1.5818
C -1.6023 -1.5708 -1.5848
C -1.5994 -1.5658 -1.5851
C -1.6026 -1.5747 -1.5888
C -1.5992 -1.5757 -1.5925
C -1.6065 -1.5805 -1.5894
C -1.6053 -1.5825 -1.5884
C -1.6070 -1.5853 -1.5921
C -1.6119 -1.5783 -1.5873
C -1.6089 -1.5718 -1.5883
C -1.6199 -1.5839 -1.5846
C -1.6029 -1.5720 -1.5867
C -1.6037 -1.5699 -1.5844
C -1.6022 -1.5727 -1.5873
C -1.5998 -1.5760 -1.5899
C -1.6022 -1.5783 -1.5943
C -1.5957 -1.5755 -1.5895
C -1.5984 -1.5765 -1.5898
C -1.6011 -1.5769 -1.5912
C -1.5952 -1.5780 -1.5910
C -1.5982 -1.5724 -1.5867
C -1.5989 -1.5723 -1.5872
C -1.5940 -1.5710 -1.5850
C -1.6029 -1.5707 -1.5850
C -1.6021 -1.5665 -1.5824
C -1.6094 -1.5711 -1.5856
C -1.6119 -1.5697 -1.5865
C -1.6118 -1.5739 -1.5846
C -1.6066 -1.5732 -1.5822
C -1.6189 -1.5755 -1.5853
C -1.6204 -1.5738 -1.5850
C -1.6191 -1.5830 -1.5901
C -1.6181 -1.5845 -1.5895
C -1.6243 -1.5845 -1.5897
C -1.6139 -1.5861 -1.5930
C -1.6072 -1.5854 -1.5928
C -1.6153 -1.5947 -1.5949
C -1.6161 -1.5812 -1.5913
C -1.6111 -1.5784 -1.5934
C -1.6206 -1.5796 -1.5875
C -1.6252 -1.5726 -1.5834
C -1.6318 -1.5699 -1.5817
C -1.6242 -1.5728 -1.5829
C -1.6213 -1.5754 -1.5840
C -1.6282 -1.5697 -1.5811
C -1.6315 -1.5655 -1.5809
C -1.6317 -1.5753 -1.5821
C -1.6343 -1.5726 -1.5806
C -1.6352 -1.5787 -1.5834
C -1.6334 -1.5728 -1.5835
C -1.6403 -1.5813 -1.5778
C -1.6374 -1.5844 -1.5908
C -1.6274 -1.5805 -1.5841
C -1.6257 -1.5840 -1.5855
C -1.6245 -1.5664 -1.5805
C -1.6252 -1.5663 -1.5796
C -1.6194 -1.5633 -1.5796
C -1.6176 -1.5633 -1.5800
C -1.6166 -1.5621 -1.5804
C -1.6172 -1.5660 -1.5815
C -1.6147 -1.5598 -1.5828
C -1.6157 -1.5586 -1.5776
C -1.6184 -1.5518 -1.5746
C -1.6127 -1.5642 -1.5785
C -1.6108 -1.5701 -1.5804
C -1.6112 -1.5639 -1.5768
C -1.6127 -1.5624 -1.5742
C -1.6130 -1.5682 -1.5775
C -1.6098 -1.5714 -1.5680
C -1.6194 -1.5554 -1.5802
C -1.6192 -1.5494 -1.5879
C -1.6193 -1.5535 -1.5733
C -1.6245 -1.5531 -1.5810
C -1.6122 -1.5804 -1.5869
C -1.6069 -1.5864 -1.5867
C -1.6070 -1.5615 -1.5767
C -1.6043 -1.5626 -1.5801
C -1.6058 -1.5574 -1.5742
C -1.6078 -1.5560 -1.5716
C -1.6001 -1.5515 -1.5743
C -1.5997 -1.5499 -1.5760
C -1.6000 -1.5450 -1.5716
C -1.6002 -1.5484 -1.5687
C -1.5964 -1.5400 -1.5732
C -1.6039 -1.5424 -1.5678
C -1.6120 -1.5430 -1.5716
C -1.6167 -1.5460 -1.5772
C -1.6128 -1.5384 -1.5672
C -1.6190 -1.5383 -1.5681
C -1.6064 -1.5349 -1.5603
C -1.6043 -1.5305 -1.5533
C -1.6088 -1.5289 -1.5518
C -1.5972 -1.5269 -1.5461
C -1.5960 -1.5228 -1.5408
C -1.5916 -1.5288 -1.5461
C -1.5867 -1.5261 -1.5401
C -1.5933 -1.5334 -1.5527
C -1.5889 -1.5348 -1.5528
C -1.6008 -1.5367 -1.5598
C -1.5959 -1.5535 -1.5750
C -1.5984 -1.5563 -1.5763
C -1.5913 -1.5519 -1.5774
C -1.5907 -1.5484 -1.5773
C -1.5871 -1.5544 -1.5783
C -1.5834 -1.5502 -1.5812
C -1.5844 -1.5534 -1.5770
C -1.5890 -1.5620 -1.5787
C -1.5905 -1.5646 -1.5795
C -1.5903 -1.5643 -1.5773
138
REAL frame=35
C -1.5994 -1.5679 -1.5779
C -1.6011 -1.5673 -1.5765
C -1.5988 -1.5654 -1.5826
C -1.5975 -1.5679 -1.5758
C -1.6008 -1.5725 -1.5788
C -1.5989 -1.5736 -1.5817
C -1.6027 -1.5744 -1.5759
C -1.6027 -1.5726 -1.5782
C -1.6072 -1.5753 -1.5759
C -1.5987 -1.5689 -1.5788
C -1.5960 -1.5673 -1.5815
C -1.6011 -1.5666 -1.5789
C -1.6038 -1.5641 -1.5761
C -1.5972 -1.5619 -1.5821
C -1.5944 -1.5557 -1.5804
C -1.5956 -1.5665 -1.5824
C -1.6002 -1.5601 -1.5857
C -1.6000 -1.5666 -1.5899
C -1.5972 -1.5736 -1.5907
C -1.6031 -1.5642 -1.5939
C -1.6039 -1.5691 -1.5968
C -1.6049 -1.5552 -1.5936
C -1.6080 -1.5525 -1.5964
C -1.6087 -1.5482 -1.5871
C -1.6048 -1.5480 -1.5898
C -1.6067 -1.5407 -1.5893
C -1.6030 -1.5503 -1.5855
C -1.6038 -1.5428 -1.5825
C -1.6035 -1.5725 -1.5816
C -1.6057 -1.5783 -1.5818
C -1.6022 -1.5708 -1.5850
C -1.5997 -1.5662 -1.5846
C -1.6025 -1.5746 -1.5889
C -1.5992 -1.5762 -1.5921
C -1.6066 -1.5805 -1.5896
C -1.6058 -1.5827 -1.5881
C -1.6070 -1.5853 -1.5919
C -1.6119 -1.5783 -1.5874
C -1.6088 -1.5719 -1.5883
C -1.6199 -1.5837 -1.5845
C -1.6029 -1.5721 -1.5865
C -1.6036 -1.5699 -1.5843
C -1.6024 -1.5729 -1.5873
C -1.5998 -1.5759 -1.5899
C -1.6024 -1.5776 -1.5936
C -1.5957 -1.5755 -1.5892
C -1.5985 -1.5765 -1.5898
C -1.6010 -1.5767 -1.5913
C -1.5952 -1.5780 -1.5910
C -1.5983 -1.5722 -1.5867
C -1.5989 -1.5723 -1.5875
C -1.5941 -1.5708 -1.5850
C -1.6029 -1.5706 -1.5850
C -1.6021 -1.5662 -1.5826
C -1.6095 -1.5711 -1.5855
C -1.6120 -1.5697 -1.5864
C -1.6118 -1.5739 -1.5847
C -1.6066 -1.5732 -1.5824
C -1.6190 -1.5755 -1.5853
C -1.6209 -1.5735 -1.5846
C -1.6191 -1.5830 -1.5902
C -1.6186 -1.5845 -1.5898
C -1.6244 -1.5845 -1.5901
C -1.6140 -1.5861 -1.5931
C -1.6073 -1.5856 -1.5927
C -1.6153 -1.5948 -1.5951
C -1.6161 -1.5814 -1.5913
C -1.6112 -1.5785 -1.5933
C -1.6206 -1.5796 -1.5876
C -1.6251 -1.5724 -1.5832
C -1.6318 -1.5698 -1.5816
C -1.6242 -1.5728 -1.5830
C -1.6215 -1.5756 -1.5837
C -1.6281 -1.5697 -1.5810
C -1.6316 -1.5655 -1.5807
C -1.6316 -1.5754 -1.5820
C -1.6342 -1.5725 -1.5804
C -1.6353 -1.5786 -1.5836
C -1.6331 -1.5730 -1.5829
C -1.6402 -1.5815 -1.5776
C -1.6376 -1.5838 -1.5911
C -1.6275 -1.5805 -1.5841
C -1.6259 -1.5843 -1.5854
C -1.6245 -1.5664 -1.5805
C -1.6253 -1.5662 -1.5799
C -1.6194 -1.5633 -1.5796
C -1.6181 -1.5629 -1.5799
C -1.6167 -1.5620 -1.5804
C -1.6176 -1.5656 -1.5818
C -1.6149 -1.5594 -1.5829
C -1.6156 -1.5586 -1.5778
C -1.6184 -1.5518 -1.5746
C -1.6126 -1.5641 -1.5786
C -1.6102 -1.5701 -1.5806
C -1.6111 -1.5638 -1.5767
C -1.6128 -1.5622 -1.5743
C -1.6131 -1.5683 -1.5776
C -1.6094 -1.5715 -1.5685
C -1.6195 -1.5555 -1.5802
C -1.6191 -1.5494 -1.5878
C -1.6195 -1.5529 -1.5734
C -1.6246 -1.5532 -1.5810
C -1.6123 -1.5804 -1.5869
C -1.6067 -1.5866 -1.5860
C -1.6070 -1.5613 -1.5770
C -1.6042 -1.5626 -1.5802
C -1.6058 -1.5574 -1.5740
C -1.6082 -1.5565 -1.5712
C -1.6001 -1.5515 -1.5744
C -1.5995 -1.5500 -1.5759
C -1.6000 -1.5450 -1.5715
C -1.6006 -1.5476 -1.5682
C -1.5964 -1.5399 -1.5737
C -1.6038 -1.5424 -1.5678
C -1.6119 -1.5429 -1.5716
C -1.6166 -1.5452 -1.5773
C -1.6128 -1.5385 -1.5671
C -1.6191 -1.5384 -1.5680
C -1.6065 -1.5349 -1.5602
C -1.6044 -1.5303 -1.5533
C -1.6087 -1.5287 -1.5518
C -1.5973 -1.5270 -1.5461
C -1.5961 -1.5229 -1.5409
C -1.5916 -1.5289 -1.5461
C -1.5871 -1.5262 -1.5401
C -1.5933 -1.5333 -1.5526
C -1.5887 -1.5347 -1.5528
C -1.6008 -1.5366 -1.5599
C -1.5959 -1.5536 -1.5750
C -1.5984 -1.5564 -1.5763
C -1.5913 -1.5519 -1.5774
C -1.5908 -1.5484 -1.5775
C -1.5871 -1.5544 -1.5782
C -1.5835 -1.5507 -1.5813
C -1.5846 -1.5533 -1.5769
C -1.5891 -1.5620 -1.5787
C -1.5905 -1.5648 -1.5796
C -1.5903 -1.5642 -1.5773
138
REAL frame=36
C -1.5994 -1.5679 -1.5778
C -1.6009 -1.5670 -1.5766
C -1.5987 -1.5653 -1.5825
C -1.5980 -1.5682 -1.5760
C -1.6009 -1.5724 -1.5789
C -1.5990 -1.5738 -1.5813
C -1.6028 -1.5746 -1.5761
C -1.6028 -1.5725 -1.5781
C -1.6072 -1.5753 -1.5760
C -1.5987 -1.5690 -1.5788
C -1.5960 -1.5674 -1.5814
C -1.6010 -1.5666 -1.5788
C -1.6040 -1.5643 -1.5759
C -1.5972 -1.5619 -1.5820
C -1.5944 -1.5556 -1.5804
C -1.5956 -1.5665 -1.5824
C -1.6001 -1.5601 -1.5856
C -1.6002 -1.5666 -1.5899
C -1.5972 -1.5736 -1.5908
C -1.6032 -1.5642 -1.5940
C -1.6035 -1.5694 -1.5970
C -1.6051 -1.5551 -1.5937
C -1.6080 -1.5526 -1.5964
C -1.6087 -1.5482 -1.5872
C -1.6047 -1.5479 -1.5897
C -1.6071 -1.5404 -1.5894
C -1.6031 -1.5504 -1.5856
C -1.6039 -1.5431 -1.5825
C -1.6035 -1.5725 -1.5815
C -1.6057 -1.5783 -1.5819
C -1.6020 -1.5708 -1.5853
C -1.6001 -1.5664 -1.5842
C -1.6023 -1.5746 -1.5889
C -1.5992 -1.5765 -1.5918
C -1.6066 -1.5805 -1.5897
C -1.6061 -1.5831 -1.5881
C -1.6071 -1.5853 -1.5919
C -1.6118 -1.5782 -1.5875
C -1.6087 -1.5719 -1.5884
C -1.6200 -1.5835 -1.5844
C -1.6029 -1.5722 -1.5864
C -1.6035 -1.5699 -1.5842
C -1.6025 -1.5731 -1.5873
C -1.5997 -1.5759 -1.5900
C -1.6025 -1.5771 -1.5925
C -1.5959 -1.5757 -1.5891
C -1.5985 -1.5764 -1.5899
C -1.6010 -1.5766 -1.5914
C -1.5952 -1.5779 -1.5910
C -1.5984 -1.5722 -1.5867
C -1.5989 -1.5723 -1.5876
C -1.5942 -1.5707 -1.5851
C -1.6029 -1.5704 -1.5851
C -1.6020 -1.5660 -1.5827
C -1.6095 -1.5712 -1.5853
C -1.6122 -1.5696 -1.5863
C -1.6117 -1.5738 -1.5848
C -1.6069 -1.5734 -1.5825
C -1.6191 -1.5755 -1.5853
C -1.6214 -1.5733 -1.5842
C -1.6191 -1.5829 -1.5902
C -1.6190 -1.5847 -1.5904
C -1.6244 -1.5843 -1.5907
C -1.6140 -1.5863 -1.5931
C -1.6072 -1.5856 -1.5928
C -1.6153 -1.5947 -1.5954
C -1.6161 -1.5816 -1.5914
C -1.6114 -1.5785 -1.5932
C -1.6206 -1.5797 -1.5876
C -1.6251 -1.5723 -1.5830
C -1.6319 -1.5698 -1.5815
C -1.6243 -1.5729 -1.5831
C -1.6217 -1.5757 -1.5836
C -1.6280 -1.5697 -1.5810
C -1.6316 -1.5655 -1.5802
C -1.6314 -1.5754 -1.5818
C -1.6341 -1.5725 -1.5804
C -1.6354 -1.5786 -1.5839
C -1.6326 -1.5732 -1.5824
C -1.6400 -1.5818 -1.5772
C -1.6374 -1.5832 -1.5914
C -1.6276 -1.5805 -1.5840
C -1.6260 -1.5844 -1.5854
C -1.6245 -1.5663 -1.5803
C -1.6253 -1.5661 -1.5802
C -1.6193 -1.5632 -1.5797
C -1.6185 -1.5625 -1.5798
C -1.6167 -1.5618 -1.5805
C -1.6178 -1.5654 -1.5820
C -1.6152 -1.5590 -1.5830
C -1.6155 -1.5586 -1.5780
C -1.6184 -1.5518 -1.5746
C -1.6124 -1.5640 -1.5786
C -1.6097 -1.5699 -1.5808
C -1.6112 -1.5637 -1.5767
C -1.6128 -1.5619 -1.5744
C -1.6131 -1.5683 -1.5777
C -1.6092 -1.5717 -1.5689
C -1.6196 -1.5555 -1.5802
C -1.6189 -1.5493 -1.5879
C -1.6197 -1.5525 -1.5734
C -1.6245 -1.5535 -1.5809
C -1.6124 -1.5804 -1.5869
C -1.6067 -1.5869 -1.5857
C -1.6069 -1.5612 -1.5772
C -1.6041 -1.5627 -1.5802
C -1.6058 -1.5574 -1.5738
C -1.6086 -1.5570 -1.5709
C -1.6002 -1.5515 -1.5744
C -1.5992 -1.5501 -1.5758
C -1.6000 -1.5451 -1.5714
C -1.6011 -1.5469 -1.5679
C -1.5964 -1.5397 -1.5743
C -1.6038 -1.5423 -1.5677
C -1.6118 -1.5428 -1.5716
C -1.6164 -1.5446 -1.5773
C -1.6129 -1.5386 -1.5671
C -1.6191 -1.5386 -1.5681
C -1.6066 -1.5349 -1.5601
C -1.6045 -1.5301 -1.5532
C -1.6086 -1.5285 -1.5523
C -1.5973 -1.5271 -1.5462
C -1.5963 -1.5231 -1.5409
C -1.5915 -1.5289 -1.5461
C -1.5873 -1.5264 -1.5401
C -1.5934 -1.5333 -1.5526
C -1.5886 -1.5345 -1.5528
C -1.6008 -1.5367 -1.5599
C -1.5960 -1.5538 -1.5751
C -1.5984 -1.5564 -1.5763
C -1.5913 -1.5519 -1.5773
C -1.5907 -1.5487 -1.5779
C -1.5872 -1.5545 -1.5782
C -1.5835 -1.5514 -1.5813
C -1.5849 -1.5533 -1.5768
C -1.5892 -1.5621 -1.5786
C -1.5906 -1.5649 -1.5796
C -1.5902 -1.5641 -1.5774
138
REAL frame=37
C -1.5993 -1.5678 -1.5778
C -1.6005 -1.5665 -1.5765
C -1.5985 -1.5652 -1.5820
C -1.5986 -1.5685 -1.5762
C -1.6010 -1.5724 -1.5788
C -1.5990 -1.5740 -1.5809
C -1.6029 -1.5747 -1.5765
C -1.6028 -1.5724 -1.5780
C -1.6071 -1.5753 -1.5760
C -1.5987 -1.5690 -1.5788
C -1.5959 -1.5672 -1.5813
C -1.6010 -1.5667 -1.5787
C -1.6040 -1.5644 -1.5758
C -1.5972 -1.5619 -1.5819
C -1.5943 -1.5555 -1.5804
C -1.5954 -1.5664 -1.5826
C -1.6001 -1.5600 -1.5856
C -1.6004 -1.5666 -1.5900
C -1.5974 -1.5737 -1.5907
C -1.6033 -1.5642 -1.5940
C -1.6030 -1.5697 -1.5971
C -1.6053 -1.5549 -1.5936
C -1.6080 -1.5527 -1.5965
C -1.6087 -1.5483 -1.5872
C -1.6047 -1.5479 -1.5896
C -1.6076 -1.5402 -1.5894
C -1.6032 -1.5504 -1.5857
C -1.6040 -1.5437 -1.5825
C -1.6035 -1.5725 -1.5815
C -1.6057 -1.5782 -1.5819
C -1.6019 -1.5707 -1.5855
C -1.6006 -1.5664 -1.5839
C -1.6023 -1.5746 -1.5889
C -1.5992 -1.5764 -1.5918
C -1.6066 -1.5805 -1.5898
C -1.6061 -1.5835 -1.5886
C -1.6073 -1.5853 -1.5920
C -1.6118 -1.5782 -1.5875
C -1.6086 -1.5719 -1.5885
C -1.6200 -1.5833 -1.5843
C -1.6029 -1.5723 -1.5863
C -1.6034 -1.5700 -1.5840
C -1.6026 -1.5732 -1.5872
C -1.5997 -1.5759 -1.5900
C -1.6024 -1.5768 -1.5913
C -1.5962 -1.5760 -1.5892
C -1.5985 -1.5763 -1.5900
C -1.6012 -1.5767 -1.5914
C -1.5951 -1.5778 -1.5911
C -1.5984 -1.5721 -1.5867
C -1.5990 -1.5722 -1.5875
C -1.5943 -1.5707 -1.5852
C -1.6029 -1.5702 -1.5852
C -1.6020 -1.5659 -1.5828
C -1.6095 -1.5713 -1.5852
C -1.6123 -1.5696 -1.5863
C -1.6116 -1.5737 -1.5848
C -1.6072 -1.5736 -1.5827
C -1.6192 -1.5754 -1.5853
C -1.6217 -1.5731 -1.5839
C -1.6191 -1.5828 -1.5902
C -1.6194 -1.5849 -1.5911
C -1.6244 -1.5841 -1.5913
C -1.6141 -1.5864 -1.5930
C -1.6070 -1.5855 -1.5932
C -1.6155 -1.5944 -1.5957
C -1.6159 -1.5817 -1.5915
C -1.6116 -1.5784 -1.5931
C -1.6207 -1.5797 -1.5877
C -1.6251 -1.5722 -1.5828
C -1.6319 -1.5697 -1.5814
C -1.6244 -1.5729 -1.5831
C -1.6218 -1.5757 -1.5838
C -1.6280 -1.5697 -1.5810
C -1.6317 -1.5657 -1.5795
C -1.6313 -1.5754 -1.5818
C -1.6341 -1.5725 -1.5803
C -1.6356 -1.5786 -1.5841
C -1.6323 -1.5735 -1.5821
C -1.6399 -1.5820 -1.5768
C -1.6371 -1.5827 -1.5916
C -1.6277 -1.5806 -1.5840
C -1.6261 -1.5841 -1.5854
C -1.6243 -1.5662 -1.5802
C -1.6254 -1.5660 -1.5805
C -1.6194 -1.5631 -1.5797
C -1.6189 -1.5622 -1.5797
C -1.6168 -1.5617 -1.5806
C -1.6176 -1.5655 -1.5819
C -1.6155 -1.5586 -1.5832
C -1.6155 -1.5587 -1.5780
C -1.6184 -1.5518 -1.5746
C -1.6122 -1.5640 -1.5786
C -1.6092 -1.5696 -1.5811
C -1.6113 -1.5636 -1.5768
C -1.6128 -1.5615 -1.5747
C -1.6131 -1.5684 -1.5777
C -1.6092 -1.5718 -1.5693
C -1.6197 -1.5555 -1.5802
C -1.6187 -1.5493 -1.5882
C -1.6200 -1.5523 -1.5734
C -1.6244 -1.5539 -1.5809
C -1.6124 -1.5805 -1.5868
C -1.6070 -1.5871 -1.5858
C -1.6068 -1.5611 -1.5774
C -1.6040 -1.5627 -1.5803
C -1.6058 -1.5574 -1.5736
C -1.6089 -1.5575 -1.5705
C -1.6002 -1.5514 -1.5743
C -1.5991 -1.5502 -1.5757
C -1.6000 -1.5452 -1.5712
C -1.6015 -1.5466 -1.5677
C -1.5964 -1.5396 -1.5747
C -1.6037 -1.5421 -1.5677
C -1.6116 -1.5427 -1.5715
C -1.6162 -1.5445 -1.5773
C -1.6129 -1.5388 -1.5670
C -1.6191 -1.5388 -1.5684
C -1.6067 -1.5348 -1.5599
C -1.6047 -1.5299 -1.5531
C -1.6087 -1.5283 -1.5530
C -1.5973 -1.5272 -1.5463
C -1.5964 -1.5234 -1.5408
C -1.5915 -1.5288 -1.5460
C -1.5874 -1.5268 -1.5402
C -1.5935 -1.5333 -1.5527
C -1.5885 -1.5345 -1.5525
C -1.6007 -1.5368 -1.5600
C -1.5961 -1.5539 -1.5752
C -1.5983 -1.5565 -1.5762
C -1.5913 -1.5519 -1.5771
C -1.5905 -1.5491 -1.5783
C -1.5872 -1.5545 -1.5782
C -1.5835 -1.5521 -1.5811
C -1.5852 -1.5535 -1.5769
C -1.5892 -1.5621 -1.5785
C -1.5906 -1.5650 -1.5797
C -1.5901 -1.5641 -1.5774
138
REAL frame=38
C -1.5993 -1.5678 -1.5779
C -1.6000 -1.5660 -1.5763
C -1.5984 -1.5651 -1.5813
C -1.5991 -1.5687 -1.5763
C -1.6010 -1.5724 -1.5787
C -1.5988 -1.5741 -1.5805
C -1.6030 -1.5748 -1.5770
C -1.6028 -1.5723 -1.5779
C -1.6071 -1.5753 -1.5761
C -1.5989 -1.5690 -1.5788
C -1.5957 -1.5668 -1.5811
C -1.6009 -1.5667 -1.5787
C -1.6038 -1.5645 -1.5757
C -1.5972 -1.5620 -1.5818
C -1.5943 -1.5555 -1.5803
C -1.5950 -1.5661 -1.5828
C -1.6000 -1.5598 -1.5857
C -1.6005 -1.5666 -1.5900
C -1.5977 -1.5737 -1.5905
C -1.6033 -1.5643 -1.5940
C -1.6026 -1.5699 -1.5972
C -1.6054 -1.5549 -1.5936
C -1.6081 -1.5527 -1.5966
C -1.6086 -1.5483 -1.5873
C -1.6047 -1.5479 -1.5894
C -1.6079 -1.5402 -1.5893
C -1.6032 -1.5503 -1.5858
C -1.6041 -1.5447 -1.5825
C -1.6036 -1.5726 -1.5815
C -1.6056 -1.5782 -1.5819
C -1.6017 -1.5706 -1.5856
C -1.6011 -1.5662 -1.5838
C -1.6022 -1.5746 -1.5888
C -1.5990 -1.5761 -1.5921
C -1.6066 -1.5806 -1.5899
C -1.6059 -1.5839 -1.5893
C -1.6074 -1.5853 -1.5923
C -1.6119 -1.5781 -1.5876
C -1.6085 -1.5720 -1.5885
C -1.6200 -1.5830 -1.5842
C -1.6029 -1.5725 -1.5862
C -1.6033 -1.5700 -1.5839
C -1.6027 -1.5733 -1.5871
C -1.5998 -1.5759 -1.5900
C -1.6022 -1.5767 -1.5902
C -1.5966 -1.5763 -1.5894
C -1.5985 -1.5762 -1.5901
C -1.6014 -1.5770 -1.5914
C -1.5950 -1.5777 -1.5911
C -1.5985 -1.5720 -1.5867
C -1.5992 -1.5720 -1.5873
C -1.5944 -1.5709 -1.5853
C -1.6029 -1.5700 -1.5853
C -1.6020 -1.5660 -1.5828
C -1.6094 -1.5712 -1.5852
C -1.6125 -1.5695 -1.5862
C -1.6116 -1.5736 -1.5847
C -1.6078 -1.5738 -1.5829
C -1.6192 -1.5754 -1.5853
C -1.6217 -1.5731 -1.5838
C -1.6192 -1.5828 -1.5902
C -1.6195 -1.5851 -1.5916
C -1.6244 -1.5838 -1.5918
C -1.6141 -1.5867 -1.5929
C -1.6068 -1.5853 -1.5936
C -1.6156 -1.5940 -1.5961
C -1.6158 -1.5818 -1.5917
C -1.6117 -1.5784 -1.5930
C -1.6207 -1.5798 -1.5878
C -1.6251 -1.5722 -1.5828
C -1.6319 -1.5697 -1.5813
C -1.6245 -1.5730 -1.5831
C -1.6218 -1.5755 -1.5842
C -1.6279 -1.5697 -1.5811
C -1.6316 -1.5659 -1.5788
C -1.6312 -1.5754 -1.5818
C -1.6341 -1.5726 -1.5803
C -1.6357 -1.5785 -1.5842
C -1.6320 -1.5736 -1.5821
C -1.6398 -1.5820 -1.5766
C -1.6367 -1.5823 -1.5917
C -1.6278 -1.5807 -1.5839
C -1.6260 -1.5836 -1.5855
C -1.6242 -1.5661 -1.5801
C -1.6255 -1.5660 -1.5807
C -1.6195 -1.5630 -1.5798
C -1.6190 -1.5619 -1.5797
C -1.6168 -1.5615 -1.5808
C -1.6172 -1.5656 -1.5818
C -1.6156 -1.5583 -1.5834
C -1.6154 -1.5587 -1.5780
C -1.6184 -1.5518 -1.5747
C -1.6121 -1.5640 -1.5786
C -1.6088 -1.5692 -1.5813
C -1.6115 -1.5635 -1.5769
C -1.6127 -1.5610 -1.5750
C -1.6131 -1.5684 -1.5778
C -1.6094 -1.5720 -1.5694
C -1.6197 -1.5555 -1.5803
C -1.6185 -1.5494 -1.5885
C -1.6202 -1.5524 -1.5734
C -1.6243 -1.5542 -1.5807
C -1.6124 -1.5805 -1.5867
C -1.6076 -1.5874 -1.5862
C -1.6067 -1.5610 -1.5776
C -1.6040 -1.5627 -1.5803
C -1.6058 -1.5573 -1.5735
C -1.6091 -1.5581 -1.5701
C -1.6002 -1.5513 -1.5743
C -1.5990 -1.5502 -1.5756
C -1.6000 -1.5453 -1.5711
C -1.6017 -1.5468 -1.5678
C -1.5965 -1.5395 -1.5749
C -1.6037 -1.5418 -1.5678
C -1.6115 -1.5425 -1.5715
C -1.6159 -1.5447 -1.5773
C -1.6130 -1.5389 -1.5670
C -1.6190 -1.5390 -1.5687
C -1.6067 -1.5348 -1.5597
C -1.6048 -1.5297 -1.5531
C -1.6087 -1.5282 -1.5537
C -1.5973 -1.5273 -1.5463
C -1.5964 -1.5237 -1.5407
C -1.5915 -1.5288 -1.5459
C -1.5873 -1.5272 -1.5403
C -1.5936 -1.5334 -1.5528
C -1.5885 -1.5345 -1.5523
C -1.6006 -1.5369 -1.5601
C -1.5962 -1.5540 -1.5753
C -1.5983 -1.5567 -1.5762
C -1.5912 -1.5520 -1.5771
C -1.5903 -1.5497 -1.5786
C -1.5872 -1.5545 -1.5782
C -1.5834 -1.5527 -1.5808
C -1.5856 -1.5537 -1.5770
C -1.5893 -1.5620 -1.5783
C -1.5906 -1.5651 -1.5797
C -1.5901 -1.5640 -1.5775
138
REAL frame=39
C -1.5993 -1.5678 -1.5780
C -1.5993 -1.5656 -1.5761
C -1.5983 -1.5652 -1.5806
C -1.5994 -1.5687 -1.5765
C -1.6011 -1.5725 -1.5785
C -1.5986 -1.5739 -1.5802
C -1.6032 -1.5747 -1.5775
C -1.6028 -1.5723 -1.5778
C -1.6070 -1.5752 -1.5761
C -1.5990 -1.5689 -1.5788
C -1.5955 -1.5664 -1.5809
C -1.6008 -1.5668 -1.5787
C -1.6033 -1.5646 -1.5756
C -1.5972 -1.5620 -1.5816
C -1.5943 -1.5556 -1.5802
C -1.5946 -1.5658 -1.5831
C -1.6000 -1.5597 -1.5859
C -1.6006 -1.5665 -1.5901
C -1.5981 -1.5737 -1.5903
C -1.6034 -1.5643 -1.5939
C -1.6022 -1.5701 -1.5972
C -1.6056 -1.5549 -1.5935
C -1.6081 -1.5528 -1.5967
C -1.6084 -1.5482 -1.5875
C -1.6048 -1.5480 -1.5894
C -1.6080 -1.5403 -1.5890
C -1.6032 -1.5502 -1.5859
C -1.6041 -1.5455 -1.5825
C -1.6036 -1.5727 -1.5816
C -1.6055 -1.5782 -1.5818
C -1.6016 -1.5705 -1.5856
C -1.6015 -1.5658 -1.5839
C -1.6023 -1.5747 -1.5887
C -1.5988 -1.5755 -1.5925
C -1.6066 -1.5806 -1.5901
C -1.6054 -1.5842 -1.5901
C -1.6075 -1.5853 -1.5926
C -1.6119 -1.5780 -1.5875
C -1.6084 -1.5720 -1.5886
C -1.6199 -1.5828 -1.5842
C -1.6029 -1.5726 -1.5861
C -1.6033 -1.5701 -1.5838
C -1.6027 -1.5733 -1.5870
C -1.5998 -1.5760 -1.5899
C -1.6021 -1.5768 -1.5894
C -1.5970 -1.5767 -1.5897
C -1.5984 -1.5760 -1.5902
C -1.6017 -1.5774 -1.5914
C -1.5949 -1.5775 -1.5913
C -1.5986 -1.5720 -1.5868
C -1.5993 -1.5717 -1.5870
C -1.5946 -1.5711 -1.5855
C -1.6029 -1.5699 -1.5853
C -1.6020 -1.5660 -1.5828
C -1.6094 -1.5711 -1.5853
C -1.6126 -1.5695 -1.5861
C -1.6116 -1.5735 -1.5846
C -1.6083 -1.5741 -1.5832
C -1.6193 -1.5753 -1.5852
C -1.6215 -1.5731 -1.5839
C -1.6193 -1.5828 -1.5902
C -1.6195 -1.5852 -1.5918
C -1.6243 -1.5835 -1.5921
C -1.6142 -1.5869 -1.5929
C -1.6067 -1.5853 -1.5940
C -1.6157 -1.5937 -1.5962
C -1.6157 -1.5818 -1.5917
C -1.6118 -1.5784 -1.5929
C -1.6207 -1.5799 -1.5879
C -1.6251 -1.5721 -1.5828
C -1.6319 -1.5696 -1.5813
C -1.6246 -1.5730 -1.5830
C -1.6218 -1.5753 -1.5847
C -1.6279 -1.5698 -1.5811
C -1.6316 -1.5661 -1.5783
C -1.6311 -1.5754 -1.5820
C -1.6341 -1.5727 -1.5804
C -1.6358 -1.5786 -1.5842
C -1.6320 -1.5735 -1.5824
C -1.6400 -1.5820 -1.5768
C -1.6363 -1.5820 -1.5917
C -1.6279 -1.5808 -1.5838
C -1.6259 -1.5831 -1.5855
C -1.6240 -1.5659 -1.5801
C -1.6255 -1.5661 -1.5808
C -1.6196 -1.5628 -1.5798
C -1.6189 -1.5617 -1.5797
C -1.6168 -1.5614 -1.5809
C -1.6167 -1.5658 -1.5815
C -1.6157 -1.5580 -1.5836
C -1.6154 -1.5587 -1.5779
C -1.6184 -1.5518 -1.5748
C -1.6119 -1.5640 -1.5786
C -1.6086 -1.5689 -1.5815
C -1.6116 -1.5634 -1.5770
C -1.6127 -1.5607 -1.5754
C -1.6131 -1.5684 -1.5778
C -1.6097 -1.5721 -1.5694
C -1.6198 -1.5555 -1.5804
C -1.6186 -1.5496 -1.5890
C -1.6204 -1.5526 -1.5733
C -1.6241 -1.5545 -1.5807
C -1.6124 -1.5805 -1.5866
C -1.6083 -1.5877 -1.5868
C -1.6066 -1.5609 -1.5776
C -1.6039 -1.5627 -1.5804
C -1.6059 -1.5572 -1.5734
C -1.6092 -1.5586 -1.5698
C -1.6001 -1.5513 -1.5741
C -1.5990 -1.5500 -1.5755
C -1.6001 -1.5453 -1.5710
C -1.6017 -1.5474 -1.5679
C -1.5965 -1.5396 -1.5747
C -1.6036 -1.5416 -1.5678
C -1.6114 -1.5424 -1.5715
C -1.6156 -1.5452 -1.5772
C -1.6131 -1.5389 -1.5670
C -1.6189 -1.5392 -1.5690
C -1.6068 -1.5348 -1.5595
C -1.6049 -1.5296 -1.5530
C -1.6088 -1.5282 -1.5542
C -1.5973 -1.5273 -1.5464
C -1.5964 -1.5239 -1.5405
C -1.5916 -1.5287 -1.5457
C -1.5870 -1.5273 -1.5403
C -1.5936 -1.5335 -1.5529
C -1.5887 -1.5345 -1.5521
C -1.6006 -1.5369 -1.5601
C -1.5963 -1.5540 -1.5755
C -1.5983 -1.5569 -1.5761
C -1.5912 -1.5521 -1.5770
C -1.5902 -1.5501 -1.5788
C -1.5872 -1.5546 -1.5783
C -1.5833 -1.5532 -1.5803
C -1.5861 -1.5539 -1.5772
C -1.5893 -1.5619 -1.5782
C -1.5906 -1.5653 -1.5797
C -1.5900 -1.5640 -1.5775
138
REAL frame=40
C -1.5994 -1.5677 -1.5782
C -1.5988 -1.5653 -1.5758
C -1.5981 -1.5655 -1.5800
C -1.5996 -1.5686 -1.5765
C -1.6011 -1.5725 -1.5782
C -1.5984 -1.5737 -1.5799
C -1.6033 -1.5745 -1.5777
C -1.6027 -1.5723 -1.5778
C -1.6070 -1.5752 -1.5762
C -1.5992 -1.5689 -1.5788
C -1.5954 -1.5660 -1.5805
C -1.6008 -1.5669 -1.5787
C -1.6029 -1.5646 -1.5757
C -1.5972 -1.5620 -1.5815
C -1.5943 -1.5558 -1.5800
C -1.5941 -1.5656 -1.5832
C -1.6000 -1.5596 -1.5862
C -1.6006 -1.5665 -1.5901
C -1.5985 -1.5736 -1.5900
C -1.6034 -1.5644 -1.5939
C -1.6020 -1.5701 -1.5971
C -1.6057 -1.5550 -1.5934
C -1.6081 -1.5528 -1.5968
C -1.6081 -1.5481 -1.5877
C -1.6050 -1.5480 -1.5893
C -1.6080 -1.5405 -1.5886
C -1.6031 -1.5501 -1.5859
C -1.6040 -1.5461 -1.5826
C -1.6037 -1.5727 -1.5817
C -1.6055 -1.5781 -1.5818
C -1.6014 -1.5705 -1.5856
C -1.6018 -1.5654 -1.5840
C -1.6024 -1.5748 -1.5887
C -1.5986 -1.5748 -1.5928
C -1.6066 -1.5806 -1.5902
C -1.6047 -1.5844 -1.5908
C -1.6075 -1.5854 -1.5931
C -1.6120 -1.5779 -1.5875
C -1.6084 -1.5720 -1.5886
C -1.6199 -1.5826 -1.5841
C -1.6029 -1.5727 -1.5861
C -1.6033 -1.5702 -1.5836
C -1.6026 -1.5732 -1.5869
C -1.5999 -1.5761 -1.5899
C -1.6020 -1.5771 -1.5892
C -1.5975 -1.5770 -1.5900
C -1.5984 -1.5758 -1.5904
C -1.6019 -1.5778 -1.5914
C -1.5947 -1.5772 -1.5914
C -1.5986 -1.5719 -1.5868
C -1.5995 -1.5714 -1.5866
C -1.5947 -1.5713 -1.5856
C -1.6030 -1.5699 -1.5854
C -1.6021 -1.5661 -1.5828
C -1.6093 -1.5709 -1.5853
C -1.6128 -1.5695 -1.5860
C -1.6117 -1.5733 -1.5845
C -1.6089 -1.5743 -1.5835
C -1.6193 -1.5753 -1.5852
C -1.6212 -1.5732 -1.5841
C -1.6194 -1.5828 -1.5903
C -1.6195 -1.5852 -1.5917
C -1.6242 -1.5832 -1.5922
C -1.6142 -1.5871 -1.5929
C -1.6067 -1.5854 -1.5942
C -1.6158 -1.5935 -1.5962
C -1.6157 -1.5817 -1.5915
C -1.6119 -1.5784 -1.5930
C -1.6207 -1.5800 -1.5880
C -1.6252 -1.5722 -1.5828
C -1.6318 -1.5696 -1.5811
C -1.6247 -1.5729 -1.5829
C -1.6217 -1.5751 -1.5850
C -1.6279 -1.5698 -1.5811
C -1.6315 -1.5662 -1.5783
C -1.6311 -1.5753 -1.5821
C -1.6341 -1.5728 -1.5806
C -1.6358 -1.5786 -1.5841
C -1.6322 -1.5733 -1.5828
C -1.6403 -1.5818 -1.5773
C -1.6360 -1.5819 -1.5915
C -1.6279 -1.5808 -1.5837
C -1.6258 -1.5826 -1.5855
C -1.6239 -1.5657 -1.5802
C -1.6256 -1.5662 -1.5809
C -1.6197 -1.5626 -1.5799
C -1.6186 -1.5615 -1.5798
C -1.6168 -1.5613 -1.5811
C -1.6160 -1.5658 -1.5813
C -1.6157 -1.5579 -1.5838
C -1.6154 -1.5586 -1.5778
C -1.6184 -1.5518 -1.5749
C -1.6118 -1.5641 -1.5787
C -1.6086 -1.5689 -1.5816
C -1.6117 -1.5633 -1.5772
C -1.6128 -1.5605 -1.5757
C -1.6131 -1.5683 -1.5779
C -1.6101 -1.5720 -1.5693
C -1.6198 -1.5556 -1.5805
C -1.6187 -1.5499 -1.5894
C -1.6205 -1.5530 -1.5733
C -1.6240 -1.5546 -1.5806
C -1.6124 -1.5805 -1.5865
C -1.6090 -1.5878 -1.5874
C -1.6065 -1.5608 -1.5775
C -1.6038 -1.5627 -1.5804
C -1.6060 -1.5571 -1.5734
C -1.6093 -1.5590 -1.5695
C -1.6001 -1.5512 -1.5740
C -1.5992 -1.5498 -1.5754
C -1.6002 -1.5453 -1.5708
C -1.6014 -1.5482 -1.5681
C -1.5966 -1.5398 -1.5742
C -1.6036 -1.5414 -1.5679
C -1.6113 -1.5423 -1.5715
C -1.6153 -1.5457 -1.5772
C -1.6132 -1.5390 -1.5669
C -1.6188 -1.5393 -1.5692
C -1.6068 -1.5349 -1.5593
C -1.6050 -1.5295 -1.5531
C -1.6089 -1.5281 -1.5544
C -1.5973 -1.5272 -1.5463
C -1.5963 -1.5240 -1.5404
C -1.5916 -1.5288 -1.5457
C -1.5866 -1.5272 -1.5403
C -1.5936 -1.5336 -1.5530
C -1.5889 -1.5347 -1.5520
C -1.6005 -1.5370 -1.5602
C -1.5964 -1.5540 -1.5757
C -1.5983 -1.5571 -1.5760
C -1.5911 -1.5523 -1.5770
C -1.5901 -1.5502 -1.5788
C -1.5872 -1.5547 -1.5783
C -1.5831 -1.5534 -1.5797
C -1.5866 -1.5541 -1.5774
C -1.5893 -1.5617 -1.5782
C -1.5906 -1.5654 -1.5797
C -1.5900 -1.5640 -1.5775
138
REAL frame=41
C -1.6005 -1.5688 -1.5793
C -1.5996 -1.5661 -1.5768
C -1.5990 -1.5672 -1.5811
C -1.6007 -1.5696 -1.5775
C -1.6022 -1.5736 -1.5791
C -1.5992 -1.5744 -1.5809
C -1.6044 -1.5754 -1.5788
C -1.6037 -1.5734 -1.5788
C -1.6081 -1.5762 -1.5773
C -1.6003 -1.5699 -1.5799
C -1.5964 -1.5667 -1.5811
C -1.6019 -1.5681 -1.5799
C -1.6034 -1.5657 -1.5770
C -1.5982 -1.5631 -1.5825
C -1.5954 -1.5571 -1.5809
C -1.5949 -1.5665 -1.5842
C -1.6011 -1.5605 -1.5875
C -1.6018 -1.5675 -1.5911
C -1.6000 -1.5746 -1.5909
C -1.6044 -1.5655 -1.5948
C -1.6030 -1.5712 -1.5981
C -1.6070 -1.5562 -1.5943
C -1.6093 -1.5539 -1.5980
C -1.6089 -1.5491 -1.5889
C -1.6062 -1.5491 -1.5903
C -1.6089 -1.5419 -1.5893
C -1.6042 -1.5511 -1.5870
C -1.6048 -1.5473 -1.5837
C -1.6047 -1.5738 -1.5828
C -1.6064 -1.5792 -1.5828
C -1.6024 -1.5715 -1.5866
C -1.6029 -1.5663 -1.5852
C -1.6035 -1.5760 -1.5897
C -1.5995 -1.5754 -1.5942
C -1.6076 -1.5818 -1.5913
C -1.6051 -1.5855 -1.5924
C -1.6085 -1.5865 -1.5945
C -1.6131 -1.5789 -1.5886
C -1.6093 -1.5730 -1.5898
C -1.6208 -1.5835 -1.5851
C -1.6039 -1.5738 -1.5871
C -1.6043 -1.5714 -1.5846
C -1.6036 -1.5741 -1.5879
C -1.6011 -1.5773 -1.5908
C -1.6032 -1.5786 -1.5905
C -1.5990 -1.5783 -1.5914
C -1.5995 -1.5768 -1.5915
C -1.6031 -1.5791 -1.5926
C -1.5955 -1.5780 -1.5926
C -1.5997 -1.5730 -1.5880
C -1.6006 -1.5723 -1.5874
C -1.5959 -1.5725 -1.5867
C -1.6041 -1.5712 -1.5865
C -1.6032 -1.5673 -1.5839
C -1.6103 -1.5718 -1.5865
C -1.6140 -1.5706 -1.5870
C -1.6128 -1.5743 -1.5854
C -1.6104 -1.5757 -1.5851
C -1.6204 -1.5763 -1.5862
C -1.6218 -1.5745 -1.5855
C -1.6206 -1.5839 -1.5914
C -1.6204 -1.5861 -1.5923
C -1.6253 -1.5842 -1.5932
C -1.6152 -1.5883 -1.5940
C -1.6079 -1.5868 -1.5952
C -1.6169 -1.5946 -1.5971
C -1.6168 -1.5828 -1.5924
C -1.6129 -1.5796 -1.5941
C -1.6217 -1.5812 -1.5892
C -1.6264 -1.5733 -1.5840
C -1.6328 -1.5707 -1.5822
C -1.6257 -1.5740 -1.5840
C -1.6226 -1.5761 -1.5862
C -1.6289 -1.5711 -1.5822
C -1.6324 -1.5673 -1.5797
C -1.6322 -1.5764 -1.5835
C -1.6350 -1.5739 -1.5819
C -1.6367 -1.5798 -1.5851
C -1.6337 -1.5742 -1.5844
C -1.6416 -1.5827 -1.5791
C -1.6370 -1.5832 -1.5925
C -1.6290 -1.5820 -1.5847
C -1.6267 -1.5835 -1.5865
C -1.6249 -1.5666 -1.5815
C -1.6268 -1.5674 -1.5820
C -1.6208 -1.5636 -1.5812
C -1.6195 -1.5624 -1.5810
C -1.6178 -1.5623 -1.5823
C -1.6165 -1.5669 -1.5823
C -1.6167 -1.5590 -1.5850
C -1.6164 -1.5597 -1.5789
C -1.6194 -1.5529 -1.5761
C -1.6127 -1.5653 -1.5799
C -1.6098 -1.5702 -1.5827
C -1.6128 -1.5644 -1.5785
C -1.6141 -1.5615 -1.5770
C -1.6140 -1.5694 -1.5790
C -1.6113 -1.5730 -1.5701
C -1.6208 -1.5567 -1.5817
C -1.6201 -1.5512 -1.5909
C -1.6216 -1.5545 -1.5745
C -1.6250 -1.5558 -1.5819
C -1.6135 -1.5815 -1.5876
C -1.6107 -1.5889 -1.5890
C -1.6075 -1.5618 -1.5785
C -1.6048 -1.5637 -1.5816
C -1.6071 -1.5580 -1.5746
C -1.6105 -1.5604 -1.5707
C -1.6012 -1.5523 -1.5749
C -1.6004 -1.5506 -1.5763
C -1.6013 -1.5463 -1.5719
C -1.6020 -1.5501 -1.5696
C -1.5978 -1.5412 -1.5747
C -1.6047 -1.5424 -1.5692
C -1.6122 -1.5434 -1.5727
C -1.6161 -1.5473 -1.5784
C -1.6144 -1.5401 -1.5680
C -1.6197 -1.5404 -1.5704
C -1.6079 -1.5361 -1.5604
C -1.6062 -1.5306 -1.5543
C -1.6102 -1.5292 -1.5554
C -1.5984 -1.5282 -1.5475
C -1.5973 -1.5251 -1.5414
C -1.5928 -1.5300 -1.5469
C -1.5872 -1.5280 -1.5414
C -1.5946 -1.5348 -1.5542
C -1.5902 -1.5360 -1.5534
C -1.6016 -1.5381 -1.5613
C -1.5975 -1.5550 -1.5770
C -1.5994 -1.5584 -1.5771
C -1.5920 -1.5536 -1.5781
C -1.5912 -1.5513 -1.5797
C -1.5883 -1.5558 -1.5794
C -1.5840 -1.5545 -1.5803
C -1.5882 -1.5552 -1.5786
C -1.5903 -1.5626 -1.5793
C -1.5917 -1.5667 -1.5808
C -1.5910 -1.5651 -1.5786
138
REAL frame=42
C -1.6006 -1.5687 -1.5793
C -1.5996 -1.5660 -1.5769
C -1.5988 -1.5680 -1.5815
C -1.6007 -1.5695 -1.5773
C -1.6022 -1.5736 -1.5790
C -1.5990 -1.5741 -1.5808
C -1.6045 -1.5753 -1.5784
C -1.6037 -1.5735 -1.5787
C -1.6081 -1.5761 -1.5773
C -1.6005 -1.5698 -1.5800
C -1.5964 -1.5665 -1.5805
C -1.6019 -1.5681 -1.5800
C -1.6031 -1.5657 -1.5772
C -1.5980 -1.5630 -1.5825
C -1.5955 -1.5573 -1.5806
C -1.5947 -1.5666 -1.5840
C -1.6011 -1.5605 -1.5876
C -1.6018 -1.5675 -1.5912
C -1.6004 -1.5745 -1.5909
C -1.6044 -1.5655 -1.5948
C -1.6031 -1.5711 -1.5980
C -1.6071 -1.5562 -1.5942
C -1.6093 -1.5539 -1.5981
C -1.6085 -1.5490 -1.5892
C -1.6065 -1.5491 -1.5903
C -1.6087 -1.5421 -1.5890
C -1.6041 -1.5512 -1.5870
C -1.6044 -1.5469 -1.5837
C -1.6046 -1.5737 -1.5829
C -1.6064 -1.5792 -1.5828
C -1.6024 -1.5715 -1.5865
C -1.6026 -1.5662 -1.5853
C -1.6035 -1.5761 -1.5897
C -1.5994 -1.5753 -1.5943
C -1.6076 -1.5819 -1.5914
C -1.6047 -1.5852 -1.5926
C -1.6084 -1.5866 -1.5948
C -1.6131 -1.5789 -1.5886
C -1.6093 -1.5730 -1.5899
C -1.6207 -1.5833 -1.5851
C -1.6038 -1.5738 -1.5870
C -1.6043 -1.5716 -1.5845
C -1.6034 -1.5740 -1.5878
C -1.6012 -1.5774 -1.5907
C -1.6035 -1.5790 -1.5912
C -1.5992 -1.5784 -1.5916
C -1.5996 -1.5767 -1.5916
C -1.6032 -1.5792 -1.5929
C -1.5953 -1.5776 -1.5928
C -1.5997 -1.5729 -1.5880
C -1.6006 -1.5721 -1.5873
C -1.5960 -1.5725 -1.5869
C -1.6041 -1.5713 -1.5865
C -1.6032 -1.5674 -1.5839
C -1.6104 -1.5716 -1.5865
C -1.6141 -1.5705 -1.5870
C -1.6129 -1.5742 -1.5852
C -1.6108 -1.5758 -1.5855
C -1.6204 -1.5763 -1.5861
C -1.6214 -1.5746 -1.5857
C -1.6208 -1.5839 -1.5915
C -1.6203 -1.5858 -1.5916
C -1.6254 -1.5842 -1.5929
C -1.6151 -1.5883 -1.5941
C -1.6082 -1.5873 -1.5950
C -1.6170 -1.5948 -1.5969
C -1.6169 -1.5829 -1.5921
C -1.6129 -1.5796 -1.5943
C -1.6217 -1.5812 -1.5894
C -1.6265 -1.5733 -1.5841
C -1.6327 -1.5707 -1.5821
C -1.6258 -1.5739 -1.5840
C -1.6224 -1.5761 -1.5860
C -1.6288 -1.5711 -1.5822
C -1.6324 -1.5672 -1.5803
C -1.6324 -1.5764 -1.5837
C -1.6350 -1.5738 -1.5821
C -1.6365 -1.5799 -1.5849
C -1.6342 -1.5740 -1.5848
C -1.6418 -1.5824 -1.5799
C -1.6370 -1.5835 -1.5924
C -1.6290 -1.5820 -1.5847
C -1.6267 -1.5836 -1.5864
C -1.6249 -1.5664 -1.5816
C -1.6268 -1.5676 -1.5819
C -1.6208 -1.5634 -1.5814
C -1.6193 -1.5622 -1.5812
C -1.6177 -1.5622 -1.5823
C -1.6162 -1.5666 -1.5824
C -1.6165 -1.5590 -1.5850
C -1.6165 -1.5596 -1.5789
C -1.6193 -1.5528 -1.5762
C -1.6127 -1.5654 -1.5800
C -1.6100 -1.5706 -1.5825
C -1.6128 -1.5644 -1.5787
C -1.6144 -1.5616 -1.5771
C -1.6140 -1.5693 -1.5790
C -1.6114 -1.5728 -1.5697
C -1.6207 -1.5568 -1.5819
C -1.6206 -1.5515 -1.5911
C -1.6215 -1.5548 -1.5746
C -1.6250 -1.5558 -1.5821
C -1.6135 -1.5815 -1.5875
C -1.6110 -1.5888 -1.5891
C -1.6075 -1.5617 -1.5784
C -1.6047 -1.5637 -1.5816
C -1.6071 -1.5579 -1.5747
C -1.6107 -1.5605 -1.5708
C -1.6012 -1.5523 -1.5748
C -1.6006 -1.5503 -1.5761
C -1.6014 -1.5462 -1.5718
C -1.6015 -1.5507 -1.5698
C -1.5979 -1.5414 -1.5739
C -1.6046 -1.5424 -1.5693
C -1.6121 -1.5433 -1.5728
C -1.6160 -1.5474 -1.5785
C -1.6145 -1.5401 -1.5679
C -1.6196 -1.5402 -1.5702
C -1.6079 -1.5361 -1.5604
C -1.6063 -1.5306 -1.5543
C -1.6104 -1.5291 -1.5549
C -1.5985 -1.5281 -1.5473
C -1.5971 -1.5249 -1.5414
C -1.5929 -1.5302 -1.5470
C -1.5867 -1.5275 -1.5414
C -1.5946 -1.5349 -1.5542
C -1.5905 -1.5363 -1.5538
C -1.6015 -1.5380 -1.5613
C -1.5975 -1.5549 -1.5772
C -1.5994 -1.5586 -1.5770
C -1.5920 -1.5537 -1.5781
C -1.5912 -1.5511 -1.5793
C -1.5883 -1.5559 -1.5794
C -1.5839 -1.5545 -1.5797
C -1.5887 -1.5553 -1.5787
C -1.5903 -1.5624 -1.5793
C -1.5917 -1.5668 -1.5808
C -1.5910 -1.5651 -1.5786
138
REAL frame=43
C -1.6007 -1.5687 -1.5791
C -1.5999 -1.5659 -1.5771
C -1.5987 -1.5688 -1.5824
C -1.6008 -1.5693 -1.5771
C -1.6022 -1.5736 -1.5789
C -1.5990 -1.5740 -1.5807
C -1.6045 -1.5753 -1.5779
C -1.6037 -1.5736 -1.5786
C -1.6081 -1.5761 -1.5773
C -1.6005 -1.5698 -1.5800
C -1.5965 -1.5664 -1.5799
C -1.6020 -1.5682 -1.5802
C -1.6029 -1.5657 -1.5774
C -1.5979 -1.5629 -1.5826
C -1.5956 -1.5573 -1.5805
C -1.5947 -1.5669 -1.5837
C -1.6011 -1.5604 -1.5877
C -1.6019 -1.5675 -1.5912
C -1.6007 -1.5744 -1.5909
C -1.6043 -1.5656 -1.5947
C -1.6034 -1.5709 -1.5979
C -1.6072 -1.5563 -1.5942
C -1.6094 -1.5539 -1.5982
C -1.6081 -1.5489 -1.5895
C -1.6067 -1.5490 -1.5902
C -1.6084 -1.5423 -1.5890
C -1.6041 -1.5513 -1.5870
C -1.6039 -1.5461 -1.5838
C -1.6044 -1.5735 -1.5829
C -1.6063 -1.5793 -1.5827
C -1.6024 -1.5715 -1.5864
C -1.6021 -1.5662 -1.5853
C -1.6036 -1.5761 -1.5897
C -1.5994 -1.5755 -1.5942
C -1.6075 -1.5820 -1.5915
C -1.6045 -1.5848 -1.5925
C -1.6084 -1.5867 -1.5950
C -1.6131 -1.5789 -1.5886
C -1.6093 -1.5730 -1.5900
C -1.6206 -1.5830 -1.5850
C -1.6038 -1.5737 -1.5869
C -1.6044 -1.5717 -1.5844
C -1.6032 -1.5738 -1.5878
C -1.6013 -1.5774 -1.5907
C -1.6037 -1.5792 -1.5922
C -1.5993 -1.5784 -1.5916
C -1.5997 -1.5768 -1.5917
C -1.6032 -1.5789 -1.5932
C -1.5952 -1.5773 -1.5929
C -1.5997 -1.5728 -1.5881
C -1.6005 -1.5720 -1.5874
C -1.5960 -1.5723 -1.5870
C -1.6041 -1.5715 -1.5865
C -1.6032 -1.5675 -1.5840
C -1.6105 -1.5716 -1.5864
C -1.6143 -1.5703 -1.5870
C -1.6130 -1.5741 -1.5850
C -1.6111 -1.5760 -1.5860
C -1.6205 -1.5762 -1.5861
C -1.6212 -1.5746 -1.5858
C -1.6209 -1.5839 -1.5915
C -1.6204 -1.5853 -1.5910
C -1.6256 -1.5843 -1.5926
C -1.6151 -1.5883 -1.5942
C -1.6086 -1.5877 -1.5947
C -1.6170 -1.5952 -1.5966
C -1.6170 -1.5830 -1.5919
C -1.6128 -1.5796 -1.5944
C -1.6218 -1.5812 -1.5894
C -1.6267 -1.5734 -1.5841
C -1.6327 -1.5707 -1.5820
C -1.6258 -1.5738 -1.5840
C -1.6221 -1.5761 -1.5856
C -1.6289 -1.5712 -1.5822
C -1.6324 -1.5671 -1.5810
C -1.6325 -1.5765 -1.5838
C -1.6350 -1.5736 -1.5823
C -1.6364 -1.5799 -1.5848
C -1.6346 -1.5739 -1.5851
C -1.6418 -1.5823 -1.5806
C -1.6371 -1.5840 -1.5923
C -1.6290 -1.5819 -1.5846
C -1.6267 -1.5841 -1.5863
C -1.6250 -1.5663 -1.5817
C -1.6268 -1.5677 -1.5819
C -1.6207 -1.5632 -1.5816
C -1.6193 -1.5620 -1.5814
C -1.6176 -1.5622 -1.5823
C -1.6160 -1.5663 -1.5826
C -1.6164 -1.5590 -1.5849
C -1.6165 -1.5596 -1.5790
C -1.6193 -1.5527 -1.5763
C -1.6126 -1.5654 -1.5802
C -1.6103 -1.5710 -1.5824
C -1.6127 -1.5644 -1.5789
C -1.6148 -1.5617 -1.5772
C -1.6140 -1.5693 -1.5790
C -1.6113 -1.5726 -1.5693
C -1.6207 -1.5569 -1.5821
C -1.6210 -1.5517 -1.5911
C -1.6214 -1.5549 -1.5748
C -1.6250 -1.5558 -1.5825
C -1.6136 -1.5814 -1.5875
C -1.6109 -1.5888 -1.5890
C -1.6076 -1.5616 -1.5783
C -1.6046 -1.5636 -1.5816
C -1.6071 -1.5578 -1.5747
C -1.6110 -1.5604 -1.5710
C -1.6013 -1.5523 -1.5746
C -1.6007 -1.5499 -1.5758
C -1.6015 -1.5461 -1.5718
C -1.6012 -1.5508 -1.5698
C -1.5980 -1.5415 -1.5733
C -1.6046 -1.5425 -1.5692
C -1.6119 -1.5434 -1.5730
C -1.6159 -1.5472 -1.5786
C -1.6146 -1.5400 -1.5678
C -1.6195 -1.5399 -1.5698
C -1.6079 -1.5362 -1.5605
C -1.6063 -1.5307 -1.5543
C -1.6107 -1.5292 -1.5543
C -1.5985 -1.5279 -1.5472
C -1.5969 -1.5245 -1.5414
C -1.5930 -1.5303 -1.5471
C -1.5864 -1.5271 -1.5416
C -1.5945 -1.5350 -1.5541
C -1.5908 -1.5365 -1.5542
C -1.6015 -1.5379 -1.5612
C -1.5975 -1.5550 -1.5773
C -1.5994 -1.5588 -1.5769
C -1.5919 -1.5539 -1.5781
C -1.5911 -1.5510 -1.5789
C -1.5883 -1.5561 -1.5793
C -1.5838 -1.5544 -1.5793
C -1.5892 -1.5552 -1.5786
C -1.5902 -1.5624 -1.5793
C -1.5917 -1.5668 -1.5809
C -1.5909 -1.5651 -1.5786
138
REAL frame=44
C -1.6008 -1.5687 -1.5789
C -1.6003 -1.5658 -1.5774
C -1.5988 -1.5694 -1.5833
C -1.6009 -1.5692 -1.5767
C -1.6022 -1.5735 -1.5789
C -1.5991 -1.5740 -1.5807
C -1.6044 -1.5754 -1.5772
C -1.6038 -1.5736 -1.5785
C -1.6081 -1.5760 -1.5773
C -1.6005 -1.5698 -1.5800
C -1.5966 -1.5663 -1.5794
C -1.6021 -1.5681 -1.5804
C -1.6031 -1.5656 -1.5777
C -1.5977 -1.5627 -1.5828
C -1.5956 -1.5571 -1.5804
C -1.5948 -1.5671 -1.5833
C -1.6011 -1.5604 -1.5876
C -1.6019 -1.5676 -1.5913
C -1.6009 -1.5743 -1.5910
C -1.6043 -1.5656 -1.5947
C -1.6038 -1.5708 -1.5978
C -1.6073 -1.5562 -1.5942
C -1.6095 -1.5540 -1.5982
C -1.6076 -1.5488 -1.5898
C -1.6069 -1.5490 -1.5902
C -1.6081 -1.5423 -1.5891
C -1.6040 -1.5514 -1.5869
C -1.6035 -1.5454 -1.5839
C -1.6043 -1.5734 -1.5829
C -1.6063 -1.5793 -1.5827
C -1.6025 -1.5715 -1.5863
C -1.6014 -1.5665 -1.5852
C -1.6035 -1.5762 -1.5897
C -1.5994 -1.5761 -1.5939
C -1.6075 -1.5821 -1.5916
C -1.6045 -1.5842 -1.5922
C -1.6084 -1.5868 -1.5951
C -1.6130 -1.5789 -1.5886
C -1.6093 -1.5729 -1.5901
C -1.6205 -1.5828 -1.5850
C -1.6037 -1.5736 -1.5869
C -1.6044 -1.5719 -1.5843
C -1.6031 -1.5738 -1.5877
C -1.6014 -1.5773 -1.5907
C -1.6039 -1.5792 -1.5933
C -1.5992 -1.5782 -1.5915
C -1.5998 -1.5768 -1.5917
C -1.6030 -1.5786 -1.5935
C -1.5952 -1.5772 -1.5930
C -1.5998 -1.5727 -1.5882
C -1.6004 -1.5720 -1.5876
C -1.5959 -1.5720 -1.5872
C -1.6042 -1.5716 -1.5865
C -1.6032 -1.5676 -1.5842
C -1.6106 -1.5715 -1.5862
C -1.6144 -1.5701 -1.5870
C -1.6130 -1.5740 -1.5848
C -1.6113 -1.5760 -1.5863
C -1.6205 -1.5762 -1.5862
C -1.6212 -1.5745 -1.5857
C -1.6210 -1.5839 -1.5914
C -1.6205 -1.5850 -1.5905
C -1.6259 -1.5846 -1.5923
C -1.6151 -1.5883 -1.5943
C -1.6089 -1.5880 -1.5943
C -1.6169 -1.5956 -1.5964
C -1.6169 -1.5831 -1.5919
C -1.6128 -1.5796 -1.5945
C -1.6218 -1.5812 -1.5895
C -1.6269 -1.5733 -1.5841
C -1.6326 -1.5707 -1.5820
C -1.6258 -1.5737 -1.5841
C -1.6219 -1.5762 -1.5850
C -1.6289 -1.5712 -1.5823
C -1.6324 -1.5670 -1.5817
C -1.6327 -1.5766 -1.5839
C -1.6350 -1.5734 -1.5825
C -1.6364 -1.5798 -1.5847
C -1.6349 -1.5738 -1.5852
C -1.6417 -1.5824 -1.5810
C -1.6370 -1.5846 -1.5922
C -1.6290 -1.5818 -1.5845
C -1.6267 -1.5848 -1.5860
C -1.6252 -1.5663 -1.5816
C -1.6269 -1.5679 -1.5819
C -1.6206 -1.5631 -1.5818
C -1.6193 -1.5618 -1.5816
C -1.6175 -1.5622 -1.5822
C -1.6160 -1.5659 -1.5830
C -1.6162 -1.5591 -1.5846
C -1.6167 -1.5595 -1.5791
C -1.6192 -1.5526 -1.5763
C -1.6126 -1.5655 -1.5804
C -1.6106 -1.5713 -1.5823
C -1.6125 -1.5645 -1.5789
C -1.6150 -1.5619 -1.5773
C -1.6140 -1.5693 -1.5789
C -1.6111 -1.5723 -1.5689
C -1.6206 -1.5570 -1.5822
C -1.6214 -1.5518 -1.5909
C -1.6212 -1.5549 -1.5750
C -1.6250 -1.5559 -1.5829
C -1.6137 -1.5813 -1.5875
C -1.6105 -1.5887 -1.5885
C -1.6077 -1.5615 -1.5783
C -1.6045 -1.5634 -1.5814
C -1.6071 -1.5577 -1.5748
C -1.6113 -1.5601 -1.5713
C -1.6014 -1.5523 -1.5746
C -1.6007 -1.5497 -1.5755
C -1.6016 -1.5461 -1.5717
C -1.6011 -1.5506 -1.5695
C -1.5981 -1.5414 -1.5730
C -1.6046 -1.5426 -1.5691
C -1.6118 -1.5434 -1.5731
C -1.6159 -1.5467 -1.5788
C -1.6147 -1.5399 -1.5677
C -1.6195 -1.5395 -1.5692
C -1.6079 -1.5362 -1.5606
C -1.6064 -1.5308 -1.5542
C -1.6110 -1.5293 -1.5538
C -1.5986 -1.5278 -1.5471
C -1.5967 -1.5240 -1.5416
C -1.5931 -1.5303 -1.5473
C -1.5861 -1.5269 -1.5418
C -1.5945 -1.5352 -1.5541
C -1.5909 -1.5367 -1.5545
C -1.6015 -1.5378 -1.5612
C -1.5975 -1.5551 -1.5774
C -1.5994 -1.5590 -1.5769
C -1.5919 -1.5540 -1.5782
C -1.5909 -1.5511 -1.5785
C -1.5883 -1.5562 -1.5792
C -1.5837 -1.5544 -1.5791
C -1.5895 -1.5551 -1.5785
C -1.5903 -1.5625 -1.5794
C -1.5917 -1.5669 -1.5810
C -1.5909 -1.5651 -1.5785
138
REAL frame=45
C -1.6008 -1.5687 -1.5787
C -1.6006 -1.5656 -1.5777
C -1.5990 -1.5697 -1.5840
C -1.6011 -1.5691 -1.5762
C -1.6023 -1.5735 -1.5789
C -1.5993 -1.5741 -1.5808
C -1.6043 -1.5755 -1.5766
C -1.6039 -1.5736 -1.5784
C -1.6080 -1.5760 -1.5773
C -1.6005 -1.5698 -1.5800
C -1.5966 -1.5662 -1.5790
C -1.6021 -1.5681 -1.5807
C -1.6035 -1.5656 -1.5779
C -1.5976 -1.5626 -1.5829
C -1.5956 -1.5566 -1.5805
C -1.5948 -1.5673 -1.5830
C -1.6011 -1.5605 -1.5875
C -1.6020 -1.5676 -1.5913
C -1.6010 -1.5743 -1.5912
C -1.6042 -1.5656 -1.5946
C -1.6042 -1.5706 -1.5977
C -1.6073 -1.5562 -1.5942
C -1.6095 -1.5541 -1.5983
C -1.6072 -1.5489 -1.5900
C -1.6072 -1.5490 -1.5901
C -1.6079 -1.5423 -1.5895
C -1.6040 -1.5515 -1.5869
C -1.6030 -1.5449 -1.5840
C -1.6041 -1.5733 -1.5829
C -1.6063 -1.5793 -1.5827
C -1.6026 -1.5714 -1.5861
C -1.6007 -1.5667 -1.5853
C -1.6034 -1.5761 -1.5898
C -1.5995 -1.5769 -1.5935
C -1.6075 -1.5821 -1.5916
C -1.6047 -1.5836 -1.5916
C -1.6085 -1.5868 -1.5952
C -1.6129 -1.5790 -1.5887
C -1.6094 -1.5729 -1.5901
C -1.6203 -1.5826 -1.5850
C -1.6037 -1.5735 -1.5869
C -1.6045 -1.5721 -1.5842
C -1.6029 -1.5738 -1.5877
C -1.6015 -1.5772 -1.5908
C -1.6041 -1.5791 -1.5941
C -1.5989 -1.5778 -1.5912
C -1.5999 -1.5769 -1.5916
C -1.6028 -1.5781 -1.5938
C -1.5954 -1.5772 -1.5930
C -1.5998 -1.5727 -1.5882
C -1.6003 -1.5720 -1.5878
C -1.5959 -1.5716 -1.5873
C -1.6042 -1.5715 -1.5865
C -1.6032 -1.5677 -1.5843
C -1.6108 -1.5716 -1.5859
C -1.6145 -1.5699 -1.5870
C -1.6130 -1.5739 -1.5847
C -1.6115 -1.5760 -1.5865
C -1.6206 -1.5761 -1.5863
C -1.6214 -1.5743 -1.5855
C -1.6210 -1.5839 -1.5913
C -1.6208 -1.5847 -1.5902
C -1.6262 -1.5850 -1.5922
C -1.6152 -1.5883 -1.5942
C -1.6091 -1.5882 -1.5940
C -1.6169 -1.5959 -1.5964
C -1.6168 -1.5833 -1.5920
C -1.6129 -1.5796 -1.5945
C -1.6219 -1.5811 -1.5895
C -1.6271 -1.5733 -1.5841
C -1.6324 -1.5708 -1.5819
C -1.6258 -1.5736 -1.5841
C -1.6217 -1.5762 -1.5847
C -1.6291 -1.5711 -1.5824
C -1.6325 -1.5669 -1.5821
C -1.6327 -1.5767 -1.5839
C -1.6352 -1.5732 -1.5826
C -1.6364 -1.5797 -1.5847
C -1.6348 -1.5738 -1.5850
C -1.6416 -1.5828 -1.5810
C -1.6370 -1.5852 -1.5922
C -1.6290 -1.5817 -1.5844
C -1.6267 -1.5856 -1.5857
C -1.6254 -1.5663 -1.5815
C -1.6269 -1.5680 -1.5819
C -1.6204 -1.5629 -1.5820
C -1.6194 -1.5616 -1.5818
C -1.6174 -1.5621 -1.5821
C -1.6162 -1.5656 -1.5833
C -1.6159 -1.5591 -1.5842
C -1.6168 -1.5594 -1.5793
C -1.6191 -1.5525 -1.5763
C -1.6126 -1.5656 -1.5806
C -1.6109 -1.5713 -1.5824
C -1.6124 -1.5646 -1.5790
C -1.6151 -1.5620 -1.5773
C -1.6139 -1.5692 -1.5790
C -1.6107 -1.5720 -1.5687
C -1.6206 -1.5570 -1.5824
C -1.6215 -1.5518 -1.5907
C -1.6211 -1.5548 -1.5753
C -1.6249 -1.5561 -1.5832
C -1.6139 -1.5812 -1.5876
C -1.6100 -1.5886 -1.5879
C -1.6078 -1.5616 -1.5784
C -1.6045 -1.5633 -1.5813
C -1.6070 -1.5576 -1.5748
C -1.6115 -1.5597 -1.5715
C -1.6016 -1.5523 -1.5746
C -1.6006 -1.5496 -1.5752
C -1.6016 -1.5461 -1.5717
C -1.6014 -1.5500 -1.5690
C -1.5981 -1.5412 -1.5729
C -1.6046 -1.5427 -1.5690
C -1.6116 -1.5434 -1.5732
C -1.6160 -1.5461 -1.5790
C -1.6148 -1.5398 -1.5677
C -1.6195 -1.5392 -1.5687
C -1.6079 -1.5361 -1.5608
C -1.6064 -1.5309 -1.5541
C -1.6113 -1.5295 -1.5534
C -1.5986 -1.5278 -1.5470
C -1.5965 -1.5236 -1.5418
C -1.5931 -1.5302 -1.5474
C -1.5861 -1.5270 -1.5420
C -1.5945 -1.5353 -1.5540
C -1.5909 -1.5369 -1.5547
C -1.6015 -1.5377 -1.5611
C -1.5975 -1.5553 -1.5774
C -1.5993 -1.5591 -1.5768
C -1.5919 -1.5540 -1.5782
C -1.5906 -1.5513 -1.5780
C -1.5883 -1.5563 -1.5791
C -1.5837 -1.5546 -1.5789
C -1.5896 -1.5550 -1.5783
C -1.5903 -1.5626 -1.5794
C -1.5917 -1.5668 -1.5811
C -1.5908 -1.5650 -1.5785
138
REAL frame=46
C -1.6009 -1.5688 -1.5785
C -1.6006 -1.5653 -1.5781
C -1.5993 -1.5696 -1.5844
C -1.6014 -1.5690 -1.5757
C -1.6023 -1.5734 -1.5788
C -1.5996 -1.5744 -1.5808
C -1.6041 -1.5757 -1.5760
C -1.6040 -1.5735 -1.5784
C -1.6080 -1.5760 -1.5773
C -1.6005 -1.5699 -1.5800
C -1.5965 -1.5660 -1.5789
C -1.6020 -1.5680 -1.5809
C -1.6041 -1.5655 -1.5781
C -1.5976 -1.5625 -1.5831
C -1.5955 -1.5559 -1.5807
C -1.5947 -1.5674 -1.5829
C -1.6011 -1.5607 -1.5873
C -1.6020 -1.5677 -1.5913
C -1.6010 -1.5743 -1.5915
C -1.6042 -1.5655 -1.5946
C -1.6047 -1.5704 -1.5976
C -1.6074 -1.5560 -1.5943
C -1.6096 -1.5542 -1.5983
C -1.6066 -1.5490 -1.5901
C -1.6074 -1.5489 -1.5901
C -1.6079 -1.5421 -1.5900
C -1.6039 -1.5515 -1.5869
C -1.6027 -1.5448 -1.5841
C -1.6040 -1.5732 -1.5830
C -1.6062 -1.5793 -1.5827
C -1.6027 -1.5714 -1.5860
C -1.6000 -1.5669 -1.5856
C -1.6033 -1.5761 -1.5898
C -1.5996 -1.5775 -1.5930
C -1.6075 -1.5821 -1.5916
C -1.6051 -1.5831 -1.5909
C -1.6086 -1.5868 -1.5952
C -1.6128 -1.5790 -1.5889
C -1.6094 -1.5728 -1.5902
C -1.6202 -1.5824 -1.5850
C -1.6037 -1.5735 -1.5869
C -1.6045 -1.5722 -1.5841
C -1.6028 -1.5739 -1.5878
C -1.6016 -1.5770 -1.5910
C -1.6042 -1.5789 -1.5945
C -1.5985 -1.5774 -1.5909
C -1.6000 -1.5770 -1.5916
C -1.6026 -1.5777 -1.5940
C -1.5955 -1.5775 -1.5929
C -1.5999 -1.5727 -1.5882
C -1.6002 -1.5721 -1.5881
C -1.5958 -1.5713 -1.5873
C -1.6043 -1.5714 -1.5865
C -1.6031 -1.5677 -1.5843
C -1.6109 -1.5716 -1.5857
C -1.6146 -1.5697 -1.5870
C -1.6130 -1.5739 -1.5847
C -1.6117 -1.5760 -1.5866
C -1.6208 -1.5761 -1.5864
C -1.6219 -1.5740 -1.5853
C -1.6210 -1.5838 -1.5912
C -1.6210 -1.5847 -1.5903
C -1.6265 -1.5853 -1.5922
C -1.6153 -1.5884 -1.5941
C -1.6091 -1.5882 -1.5938
C -1.6169 -1.5961 -1.5965
C -1.6166 -1.5834 -1.5923
C -1.6129 -1.5797 -1.5945
C -1.6219 -1.5810 -1.5895
C -1.6273 -1.5733 -1.5841
C -1.6324 -1.5708 -1.5819
C -1.6257 -1.5735 -1.5841
C -1.6214 -1.5762 -1.5846
C -1.6293 -1.5710 -1.5826
C -1.6327 -1.5668 -1.5821
C -1.6328 -1.5767 -1.5839
C -1.6354 -1.5730 -1.5826
C -1.6364 -1.5796 -1.5848
C -1.6345 -1.5737 -1.5847
C -1.6413 -1.5834 -1.5807
C -1.6368 -1.5857 -1.5922
C -1.6290 -1.5817 -1.5844
C -1.6266 -1.5864 -1.5854
C -1.6255 -1.5665 -1.5814
C -1.6268 -1.5682 -1.5819
C -1.6202 -1.5628 -1.5822
C -1.6193 -1.5615 -1.5820
C -1.6173 -1.5620 -1.5820
C -1.6164 -1.5653 -1.5834
C -1.6157 -1.5592 -1.5837
C -1.6169 -1.5594 -1.5795
C -1.6191 -1.5524 -1.5763
C -1.6127 -1.5656 -1.5808
C -1.6111 -1.5712 -1.5826
C -1.6123 -1.5647 -1.5790
C -1.6148 -1.5620 -1.5773
C -1.6139 -1.5692 -1.5790
C -1.6104 -1.5719 -1.5687
C -1.6206 -1.5571 -1.5826
C -1.6215 -1.5517 -1.5906
C -1.6210 -1.5546 -1.5756
C -1.6248 -1.5564 -1.5835
C -1.6140 -1.5811 -1.5876
C -1.6095 -1.5883 -1.5873
C -1.6079 -1.5616 -1.5785
C -1.6044 -1.5630 -1.5811
C -1.6070 -1.5575 -1.5748
C -1.6114 -1.5591 -1.5717
C -1.6017 -1.5523 -1.5746
C -1.6005 -1.5496 -1.5751
C -1.6016 -1.5461 -1.5716
C -1.6019 -1.5492 -1.5685
C -1.5980 -1.5410 -1.5732
C -1.6047 -1.5428 -1.5689
C -1.6116 -1.5434 -1.5733
C -1.6159 -1.5456 -1.5791
C -1.6148 -1.5398 -1.5677
C -1.6196 -1.5390 -1.5683
C -1.6080 -1.5360 -1.5609
C -1.6065 -1.5311 -1.5539
C -1.6116 -1.5298 -1.5533
C -1.5987 -1.5278 -1.5470
C -1.5964 -1.5234 -1.5420
C -1.5932 -1.5301 -1.5474
C -1.5861 -1.5274 -1.5422
C -1.5945 -1.5354 -1.5541
C -1.5907 -1.5369 -1.5546
C -1.6015 -1.5377 -1.5610
C -1.5975 -1.5555 -1.5774
C -1.5992 -1.5592 -1.5768
C -1.5920 -1.5540 -1.5782
C -1.5903 -1.5516 -1.5776
C -1.5883 -1.5564 -1.5789
C -1.5838 -1.5549 -1.5789
C -1.5895 -1.5549 -1.5780
C -1.5903 -1.5628 -1.5794
C -1.5917 -1.5668 -1.5812
C -1.5908 -1.5650 -1.5784
138
REAL frame=47
C -1.6009 -1.5689 -1.5784
C -1.6004 -1.5650 -1.5783
C -1.5994 -1.5692 -1.5842
C -1.6017 -1.5688 -1.5751
C -1.6023 -1.5734 -1.5787
C -1.6000 -1.5746 -1.5809
C -1.6040 -1.5758 -1.5757
C -1.6041 -1.5734 -1.5785
C -1.6081 -1.5760 -1.5772
C -1.6005 -1.5699 -1.5799
C -1.5964 -1.5660 -1.5790
C -1.6018 -1.5678 -1.5811
C -1.6048 -1.5654 -1.5783
C -1.5975 -1.5625 -1.5832
C -1.5953 -1.5552 -1.5809
C -1.5946 -1.5673 -1.5830
C -1.6010 -1.5608 -1.5872
C -1.6021 -1.5678 -1.5913
C -1.6009 -1.5743 -1.5917
C -1.6042 -1.5655 -1.5947
C -1.6051 -1.5703 -1.5975
C -1.6074 -1.5559 -1.5943
C -1.6097 -1.5543 -1.5983
C -1.6061 -1.5492 -1.5902
C -1.6076 -1.5489 -1.5901
C -1.6081 -1.5420 -1.5903
C -1.6038 -1.5514 -1.5868
C -1.6024 -1.5451 -1.5840
C -1.6039 -1.5732 -1.5831
C -1.6062 -1.5793 -1.5826
C -1.6029 -1.5714 -1.5858
C -1.5996 -1.5669 -1.5861
C -1.6032 -1.5760 -1.5899
C -1.5997 -1.5779 -1.5927
C -1.6075 -1.5821 -1.5915
C -1.6054 -1.5829 -1.5903
C -1.6089 -1.5867 -1.5953
C -1.6127 -1.5791 -1.5890
C -1.6095 -1.5727 -1.5902
C -1.6201 -1.5822 -1.5850
C -1.6037 -1.5735 -1.5870
C -1.6045 -1.5723 -1.5840
C -1.6028 -1.5740 -1.5878
C -1.6017 -1.5768 -1.5911
C -1.6043 -1.5786 -1.5945
C -1.5982 -1.5769 -1.5906
C -1.6000 -1.5771 -1.5915
C -1.6025 -1.5775 -1.5940
C -1.5958 -1.5780 -1.5927
C -1.5999 -1.5727 -1.5883
C -1.6003 -1.5722 -1.5883
C -1.5958 -1.5710 -1.5873
C -1.6043 -1.5713 -1.5865
C -1.6031 -1.5677 -1.5844
C -1.6111 -1.5716 -1.5856
C -1.6146 -1.5695 -1.5870
C -1.6130 -1.5738 -1.5846
C -1.6117 -1.5759 -1.5864
C -1.6209 -1.5760 -1.5865
C -1.6225 -1.5738 -1.5851
C -1.6210 -1.5837 -1.5910
C -1.6212 -1.5850 -1.5906
C -1.6266 -1.5855 -1.5923
C -1.6154 -1.5884 -1.5939
C -1.6090 -1.5880 -1.5937
C -1.6169 -1.5961 -1.5967
C -1.6165 -1.5834 -1.5926
C -1.6129 -1.5797 -1.5945
C -1.6220 -1.5810 -1.5895
C -1.6275 -1.5732 -1.5842
C -1.6323 -1.5708 -1.5819
C -1.6257 -1.5735 -1.5842
C -1.6212 -1.5761 -1.5848
C -1.6295 -1.5708 -1.5828
C -1.6329 -1.5667 -1.5818
C -1.6327 -1.5767 -1.5838
C -1.6357 -1.5730 -1.5825
C -1.6365 -1.5795 -1.5849
C -1.6342 -1.5738 -1.5844
C -1.6411 -1.5838 -1.5801
C -1.6367 -1.5859 -1.5922
C -1.6290 -1.5817 -1.5843
C -1.6265 -1.5869 -1.5851
C -1.6255 -1.5666 -1.5814
C -1.6268 -1.5683 -1.5819
C -1.6201 -1.5626 -1.5822
C -1.6191 -1.5616 -1.5821
C -1.6172 -1.5619 -1.5821
C -1.6166 -1.5653 -1.5835
C -1.6155 -1.5592 -1.5831
C -1.6170 -1.5594 -1.5796
C -1.6190 -1.5523 -1.5764
C -1.6127 -1.5657 -1.5810
C -1.6113 -1.5708 -1.5830
C -1.6122 -1.5647 -1.5790
C -1.6144 -1.5620 -1.5774
C -1.6138 -1.5692 -1.5791
C -1.6101 -1.5719 -1.5689
C -1.6207 -1.5572 -1.5827
C -1.6213 -1.5516 -1.5905
C -1.6210 -1.5544 -1.5758
C -1.6246 -1.5567 -1.5836
C -1.6141 -1.5811 -1.5876
C -1.6091 -1.5880 -1.5869
C -1.6079 -1.5617 -1.5785
C -1.6043 -1.5629 -1.5810
C -1.6071 -1.5573 -1.5749
C -1.6111 -1.5585 -1.5717
C -1.6018 -1.5523 -1.5746
C -1.6004 -1.5498 -1.5751
C -1.6017 -1.5462 -1.5715
C -1.6025 -1.5483 -1.5680
C -1.5980 -1.5408 -1.5738
C -1.6047 -1.5429 -1.5688
C -1.6115 -1.5433 -1.5733
C -1.6158 -1.5453 -1.5791
C -1.6149 -1.5397 -1.5678
C -1.6198 -1.5389 -1.5683
C -1.6080 -1.5359 -1.5609
C -1.6065 -1.5313 -1.5538
C -1.6118 -1.5300 -1.5534
C -1.5987 -1.5278 -1.5470
C -1.5963 -1.5233 -1.5422
C -1.5932 -1.5299 -1.5474
C -1.5863 -1.5278 -1.5423
C -1.5945 -1.5354 -1.5541
C -1.5904 -1.5368 -1.5543
C -1.6015 -1.5378 -1.5610
C -1.5975 -1.5557 -1.5773
C -1.5991 -1.5593 -1.5768
C -1.5921 -1.5539 -1.5783
C -1.5900 -1.5520 -1.5772
C -1.5883 -1.5564 -1.5787
C -1.5839 -1.5552 -1.5789
C -1.5893 -1.5549 -1.5776
C -1.5902 -1.5631 -1.5795
C -1.5917 -1.5667 -1.5812
C -1.5907 -1.5650 -1.5784
138
REAL frame=48
C -1.6010 -1.5690 -1.5783
C -1.6001 -1.5647 -1.5784
C -1.5995 -1.5687 -1.5835
C -1.6020 -1.5686 -1.5747
C -1.6024 -1.5735 -1.5786
C -1.6003 -1.5749 -1.5809
C -1.6041 -1.5758 -1.5757
C -1.6042 -1.5733 -1.5786
C -1.6081 -1.5760 -1.5772
C -1.6005 -1.5699 -1.5798
C -1.5963 -1.5659 -1.5792
C -1.6017 -1.5677 -1.5812
C -1.6052 -1.5653 -1.5786
C -1.5975 -1.5625 -1.5833
C -1.5952 -1.5545 -1.5812
C -1.5942 -1.5671 -1.5834
C -1.6010 -1.5609 -1.5871
C -1.6021 -1.5678 -1.5912
C -1.6007 -1.5744 -1.5918
C -1.6042 -1.5655 -1.5947
C -1.6054 -1.5702 -1.5975
C -1.6074 -1.5559 -1.5943
C -1.6098 -1.5544 -1.5983
C -1.6056 -1.5495 -1.5902
C -1.6078 -1.5489 -1.5901
C -1.6085 -1.5418 -1.5905
C -1.6037 -1.5513 -1.5868
C -1.6022 -1.5458 -1.5840
C -1.6039 -1.5733 -1.5833
C -1.6061 -1.5793 -1.5826
C -1.6030 -1.5714 -1.5856
C -1.5993 -1.5666 -1.5866
C -1.6031 -1.5760 -1.5898
C -1.5996 -1.5780 -1.5926
C -1.6075 -1.5820 -1.5914
C -1.6057 -1.5828 -1.5899
C -1.6092 -1.5865 -1.5953
C -1.6127 -1.5791 -1.5891
C -1.6095 -1.5727 -1.5902
C -1.6199 -1.5820 -1.5851
C -1.6037 -1.5736 -1.5871
C -1.6046 -1.5724 -1.5838
C -1.6028 -1.5741 -1.5880
C -1.6017 -1.5767 -1.5913
C -1.6043 -1.5783 -1.5940
C -1.5980 -1.5765 -1.5905
C -1.6000 -1.5770 -1.5915
C -1.6025 -1.5774 -1.5939
C -1.5961 -1.5786 -1.5924
C -1.6000 -1.5727 -1.5883
C -1.6006 -1.5723 -1.5884
C -1.5958 -1.5709 -1.5872
C -1.6044 -1.5710 -1.5864
C -1.6031 -1.5675 -1.5844
C -1.6112 -1.5715 -1.5856
C -1.6147 -1.5695 -1.5869
C -1.6131 -1.5739 -1.5845
C -1.6117 -1.5758 -1.5860
C -1.6210 -1.5759 -1.5865
C -1.6231 -1.5736 -1.5850
C -1.6210 -1.5837 -1.5909
C -1.6212 -1.5853 -1.5909
C -1.6267 -1.5854 -1.5924
C -1.6155 -1.5885 -1.5936
C -1.6087 -1.5877 -1.5935
C -1.6169 -1.5960 -1.5969
C -1.6164 -1.5833 -1.5928
C -1.6129 -1.5798 -1.5946
C -1.6220 -1.5811 -1.5895
C -1.6276 -1.5733 -1.5843
C -1.6322 -1.5708 -1.5820
C -1.6256 -1.5735 -1.5842
C -1.6210 -1.5760 -1.5852
C -1.6297 -1.5707 -1.5829
C -1.6332 -1.5667 -1.5812
C -1.6327 -1.5766 -1.5837
C -1.6358 -1.5731 -1.5824
C -1.6366 -1.5795 -1.5851
C -1.6338 -1.5739 -1.5842
C -1.6409 -1.5840 -1.5794
C -1.6368 -1.5857 -1.5924
C -1.6290 -1.5817 -1.5842
C -1.6262 -1.5870 -1.5849
C -1.6254 -1.5668 -1.5815
C -1.6268 -1.5684 -1.5820
C -1.6201 -1.5625 -1.5821
C -1.6189 -1.5616 -1.5821
C -1.6172 -1.5617 -1.5821
C -1.6167 -1.5653 -1.5833
C -1.6154 -1.5592 -1.5826
C -1.6170 -1.5594 -1.5796
C -1.6190 -1.5523 -1.5765
C -1.6128 -1.5657 -1.5812
C -1.6114 -1.5704 -1.5834
C -1.6122 -1.5648 -1.5791
C -1.6137 -1.5620 -1.5774
C -1.6137 -1.5691 -1.5792
C -1.6100 -1.5720 -1.5693
C -1.6207 -1.5572 -1.5828
C -1.6210 -1.5514 -1.5907
C -1.6211 -1.5543 -1.5759
C -1.6245 -1.5570 -1.5837
C -1.6141 -1.5810 -1.5876
C -1.6090 -1.5877 -1.5869
C -1.6079 -1.5618 -1.5785
C -1.6043 -1.5627 -1.5809
C -1.6072 -1.5572 -1.5749
C -1.6106 -1.5578 -1.5717
C -1.6019 -1.5524 -1.5746
C -1.6004 -1.5502 -1.5752
C -1.6017 -1.5463 -1.5714
C -1.6031 -1.5476 -1.5678
C -1.5981 -1.5408 -1.5744
C -1.6048 -1.5429 -1.5688
C -1.6114 -1.5432 -1.5733
C -1.6155 -1.5453 -1.5791
C -1.6149 -1.5397 -1.5679
C -1.6200 -1.5390 -1.5686
C -1.6080 -1.5358 -1.5609
C -1.6066 -1.5314 -1.5537
C -1.6120 -1.5303 -1.5536
C -1.5987 -1.5279 -1.5470
C -1.5962 -1.5235 -1.5421
C -1.5932 -1.5298 -1.5474
C -1.5867 -1.5281 -1.5424
C -1.5946 -1.5354 -1.5542
C -1.5900 -1.5366 -1.5539
C -1.6015 -1.5378 -1.5610
C -1.5975 -1.5558 -1.5772
C -1.5990 -1.5593 -1.5769
C -1.5921 -1.5539 -1.5783
C -1.5898 -1.5522 -1.5768
C -1.5883 -1.5565 -1.5786
C -1.5840 -1.5556 -1.5790
C -1.5890 -1.5549 -1.5773
C -1.5901 -1.5632 -1.5796
C -1.5917 -1.5667 -1.5813
C -1.5907 -1.5650 -1.5783
138
REAL frame=49
C -1.6010 -1.5690 -1.5782
C -1.5997 -1.5645 -1.5784
C -1.5994 -1.5682 -1.5824
C -1.6022 -1.5685 -1.5743
C -1.6024 -1.5735 -1.5785
C -1.6006 -1.5751 -1.5808
C -1.6043 -1.5757 -1.5758
C -1.6042 -1.5733 -1.5786
C -1.6082 -1.5759 -1.5771
C -1.6004 -1.5699 -1.5798
C -1.5963 -1.5661 -1.5794
C -1.6015 -1.5677 -1.5813
C -1.6054 -1.5652 -1.5788
C -1.5975 -1.5626 -1.5833
C -1.5952 -1.5540 -1.5814
C -1.5938 -1.5668 -1.5838
C -1.6010 -1.5610 -1.5871
C -1.6021 -1.5678 -1.5911
C -1.6005 -1.5744 -1.5918
C -1.6043 -1.5654 -1.5948
C -1.6055 -1.5702 -1.5975
C -1.6075 -1.5559 -1.5943
C -1.6099 -1.5544 -1.5984
C -1.6051 -1.5498 -1.5901
C -1.6079 -1.5488 -1.5902
C -1.6089 -1.5416 -1.5905
C -1.6036 -1.5513 -1.5867
C -1.6021 -1.5464 -1.5839
C -1.6039 -1.5734 -1.5834
C -1.6061 -1.5792 -1.5825
C -1.6031 -1.5714 -1.5854
C -1.5992 -1.5663 -1.5872
C -1.6030 -1.5760 -1.5898
C -1.5995 -1.5777 -1.5928
C -1.6075 -1.5819 -1.5913
C -1.6059 -1.5829 -1.5898
C -1.6094 -1.5862 -1.5953
C -1.6127 -1.5791 -1.5892
C -1.6095 -1.5726 -1.5901
C -1.6196 -1.5819 -1.5851
C -1.6037 -1.5737 -1.5872
C -1.6046 -1.5724 -1.5837
C -1.6029 -1.5743 -1.5882
C -1.6017 -1.5765 -1.5913
C -1.6043 -1.5781 -1.5933
C -1.5979 -1.5763 -1.5907
C -1.6000 -1.5770 -1.5916
C -1.6026 -1.5775 -1.5936
C -1.5964 -1.5792 -1.5922
C -1.6001 -1.5727 -1.5883
C -1.6010 -1.5724 -1.5885
C -1.5959 -1.5709 -1.5871
C -1.6044 -1.5708 -1.5864
C -1.6032 -1.5672 -1.5843
C -1.6112 -1.5713 -1.5856
C -1.6147 -1.5694 -1.5868
C -1.6132 -1.5739 -1.5845
C -1.6116 -1.5758 -1.5855
C -1.6212 -1.5758 -1.5865
C -1.6236 -1.5735 -1.5851
C -1.6211 -1.5837 -1.5908
C -1.6211 -1.5856 -1.5913
C -1.6266 -1.5852 -1.5925
C -1.6156 -1.5885 -1.5935
C -1.6084 -1.5874 -1.5934
C -1.6170 -1.5958 -1.5969
C -1.6164 -1.5832 -1.5928
C -1.6129 -1.5799 -1.5947
C -1.6221 -1.5812 -1.5895
C -1.6277 -1.5733 -1.5844
C -1.6321 -1.5707 -1.5820
C -1.6256 -1.5736 -1.5842
C -1.6209 -1.5758 -1.5856
C -1.6299 -1.5706 -1.5829
C -1.6336 -1.5667 -1.5807
C -1.6327 -1.5765 -1.5837
C -1.6359 -1.5733 -1.5822
C -1.6367 -1.5795 -1.5852
C -1.6335 -1.5741 -1.5841
C -1.6408 -1.5838 -1.5786
C -1.6370 -1.5853 -1.5926
C -1.6290 -1.5818 -1.5841
C -1.6258 -1.5867 -1.5849
C -1.6253 -1.5670 -1.5817
C -1.6267 -1.5686 -1.5820
C -1.6201 -1.5624 -1.5819
C -1.6187 -1.5617 -1.5820
C -1.6172 -1.5615 -1.5822
C -1.6167 -1.5654 -1.5831
C -1.6154 -1.5591 -1.5824
C -1.6170 -1.5594 -1.5796
C -1.6190 -1.5522 -1.5767
C -1.6130 -1.5657 -1.5813
C -1.6114 -1.5700 -1.5837
C -1.6122 -1.5647 -1.5791
C -1.6131 -1.5620 -1.5776
C -1.6136 -1.5691 -1.5793
C -1.6100 -1.5722 -1.5698
C -1.6207 -1.5572 -1.5829
C -1.6206 -1.5514 -1.5909
C -1.6212 -1.5542 -1.5759
C -1.6244 -1.5572 -1.5835
C -1.6141 -1.5809 -1.5875
C -1.6091 -1.5874 -1.5873
C -1.6078 -1.5618 -1.5784
C -1.6042 -1.5625 -1.5808
C -1.6073 -1.5571 -1.5750
C -1.6100 -1.5570 -1.5718
C -1.6019 -1.5526 -1.5746
C -1.6004 -1.5506 -1.5754
C -1.6017 -1.5464 -1.5713
C -1.6037 -1.5472 -1.5678
C -1.5982 -1.5409 -1.5748
C -1.6049 -1.5428 -1.5688
C -1.6114 -1.5431 -1.5731
C -1.6152 -1.5456 -1.5790
C -1.6149 -1.5397 -1.5680
C -1.6203 -1.5393 -1.5691
C -1.6079 -1.5358 -1.5608
C -1.6067 -1.5316 -1.5536
C -1.6120 -1.5304 -1.5537
C -1.5988 -1.5280 -1.5470
C -1.5963 -1.5238 -1.5419
C -1.5932 -1.5298 -1.5474
C -1.5871 -1.5282 -1.5423
C -1.5946 -1.5353 -1.5542
C -1.5897 -1.5363 -1.5535
C -1.6016 -1.5379 -1.5611
C -1.5975 -1.5558 -1.5770
C -1.5989 -1.5594 -1.5769
C -1.5922 -1.5539 -1.5784
C -1.5898 -1.5522 -1.5764
C -1.5884 -1.5566 -1.5785
C -1.5842 -1.5558 -1.5791
C -1.5886 -1.5549 -1.5771
C -1.5900 -1.5633 -1.5798
C -1.5917 -1.5666 -1.5813
C -1.5908 -1.5651 -1.5782
138
REAL frame=50
C -1.6011 -1.5690 -1.5781
C -1.5994 -1.5644 -1.5782
C -1.5993 -1.5680 -1.5811
C -1.6024 -1.5683 -1.5741
C -1.6025 -1.5736 -1.5783
C -1.6008 -1.5753 -1.5807
C -1.6046 -1.5755 -1.5761
C -1.6042 -1.5733 -1.5788
C -1.6083 -1.5759 -1.5770
C -1.6003 -1.5698 -1.5798
C -1.5964 -1.5664 -1.5797
C -1.6014 -1.5677 -1.5813
C -1.6052 -1.5650 -1.5789
C -1.5975 -1.5626 -1.5833
C -1.5951 -1.5539 -1.5815
C -1.5933 -1.5665 -1.5841
C -1.6009 -1.5610 -1.5871
C -1.6020 -1.5678 -1.5910
C -1.6002 -1.5745 -1.5916
C -1.6044 -1.5654 -1.5948
C -1.6055 -1.5702 -1.5976
C -1.6076 -1.5559 -1.5943
C -1.6099 -1.5544 -1.5984
C -1.6046 -1.5502 -1.5901
C -1.6080 -1.5487 -1.5903
C -1.6096 -1.5414 -1.5903
C -1.6035 -1.5513 -1.5867
C -1.6021 -1.5469 -1.5838
C -1.6039 -1.5735 -1.5836
C -1.6061 -1.5792 -1.5825
C -1.6032 -1.5715 -1.5853
C -1.5992 -1.5661 -1.5877
C -1.6031 -1.5760 -1.5897
C -1.5992 -1.5771 -1.5932
C -1.6075 -1.5818 -1.5912
C -1.6059 -1.5831 -1.5900
C -1.6096 -1.5860 -1.5952
C -1.6127 -1.5790 -1.5891
C -1.6095 -1.5726 -1.5901
C -1.6194 -1.5818 -1.5853
C -1.6037 -1.5738 -1.5872
C -1.6047 -1.5725 -1.5836
C -1.6030 -1.5743 -1.5883
C -1.6017 -1.5763 -1.5914
C -1.6041 -1.5779 -1.5924
C -1.5981 -1.5763 -1.5910
C -1.5999 -1.5769 -1.5916
C -1.6028 -1.5778 -1.5933
C -1.5966 -1.5796 -1.5919
C -1.6001 -1.5727 -1.5883
C -1.6014 -1.5725 -1.5884
C -1.5960 -1.5711 -1.5870
C -1.6045 -1.5706 -1.5863
C -1.6034 -1.5667 -1.5842
C -1.6112 -1.5711 -1.5857
C -1.6148 -1.5694 -1.5866
C -1.6134 -1.5739 -1.5844
C -1.6114 -1.5756 -1.5849
C -1.6213 -1.5757 -1.5864
C -1.6239 -1.5735 -1.5853
C -1.6212 -1.5838 -1.5907
C -1.6208 -1.5859 -1.5914
C -1.6265 -1.5849 -1.5925
C -1.6156 -1.5885 -1.5933
C -1.6082 -1.5871 -1.5932
C -1.6170 -1.5957 -1.5968
C -1.6166 -1.5830 -1.5928
C -1.6128 -1.5800 -1.5948
C -1.6221 -1.5814 -1.5895
C -1.6277 -1.5733 -1.5845
C -1.6320 -1.5706 -1.5820
C -1.6256 -1.5736 -1.5844
C -1.6208 -1.5757 -1.5860
C -1.6300 -1.5705 -1.5828
C -1.6340 -1.5667 -1.5802
C -1.6328 -1.5763 -1.5836
C -1.6358 -1.5734 -1.5821
C -1.6368 -1.5796 -1.5853
C -1.6334 -1.5742 -1.5842
C -1.6408 -1.5834 -1.5779
C -1.6374 -1.5846 -1.5928
C -1.6290 -1.5819 -1.5840
C -1.6253 -1.5862 -1.5850
C -1.6252 -1.5672 -1.5820
C -1.6267 -1.5687 -1.5820
C -1.6202 -1.5623 -1.5817
C -1.6186 -1.5618 -1.5819
C -1.6172 -1.5613 -1.5823
C -1.6165 -1.5655 -1.5829
C -1.6154 -1.5589 -1.5824
C -1.6170 -1.5594 -1.5796
C -1.6191 -1.5523 -1.5769
C -1.6131 -1.5656 -1.5815
C -1.6114 -1.5698 -1.5840
C -1.6123 -1.5647 -1.5792
C -1.6127 -1.5619 -1.5777
C -1.6135 -1.5690 -1.5794
C -1.6101 -1.5725 -1.5704
C -1.6208 -1.5572 -1.5829
C -1.6203 -1.5514 -1.5913
C -1.6214 -1.5543 -1.5759
C -1.6244 -1.5572 -1.5834
C -1.6141 -1.5808 -1.5875
C -1.6094 -1.5871 -1.5881
C -1.6078 -1.5618 -1.5782
C -1.6042 -1.5625 -1.5808
C -1.6073 -1.5570 -1.5750
C -1.6095 -1.5562 -1.5721
C -1.6019 -1.5528 -1.5746
C -1.6005 -1.5511 -1.5756
C -1.6018 -1.5464 -1.5712
C -1.6039 -1.5473 -1.5679
C -1.5983 -1.5411 -1.5749
C -1.6049 -1.5427 -1.5689
C -1.6114 -1.5430 -1.5729
C -1.6148 -1.5460 -1.5788
C -1.6149 -1.5396 -1.5681
C -1.6206 -1.5397 -1.5699
C -1.6079 -1.5359 -1.5607
C -1.6068 -1.5317 -1.5536
C -1.6120 -1.5305 -1.5537
C -1.5988 -1.5281 -1.5470
C -1.5965 -1.5242 -1.5416
C -1.5931 -1.5298 -1.5474
C -1.5875 -1.5280 -1.5420
C -1.5947 -1.5351 -1.5542
C -1.5894 -1.5360 -1.5533
C -1.6016 -1.5380 -1.5612
C -1.5975 -1.5558 -1.5768
C -1.5988 -1.5595 -1.5769
C -1.5922 -1.5539 -1.5784
C -1.5899 -1.5521 -1.5761
C -1.5885 -1.5566 -1.5784
C -1.5843 -1.5559 -1.5791
C -1.5883 -1.5550 -1.5770
C -1.5898 -1.5633 -1.5799
C -1.5917 -1.5665 -1.5813
C -1.5908 -1.5652 -1.5782
138
REAL frame=51
C -1.6021 -1.5700 -1.5791
C -1.6004 -1.5655 -1.5790
C -1.6002 -1.5693 -1.5811
C -1.6036 -1.5694 -1.5752
C -1.6037 -1.5747 -1.5793
C -1.6020 -1.5764 -1.5815
C -1.6059 -1.5763 -1.5775
C -1.6052 -1.5744 -1.5799
C -1.6095 -1.5769 -1.5780
C -1.6013 -1.5707 -1.5809
C -1.5976 -1.5678 -1.5810
C -1.6024 -1.5688 -1.5823
C -1.6057 -1.5660 -1.5801
C -1.5984 -1.5638 -1.5843
C -1.5962 -1.5552 -1.5824
C -1.5940 -1.5674 -1.5854
C -1.6019 -1.5619 -1.5883
C -1.6030 -1.5689 -1.5920
C -1.6010 -1.5758 -1.5924
C -1.6056 -1.5664 -1.5958
C -1.6064 -1.5713 -1.5987
C -1.6087 -1.5571 -1.5954
C -1.6111 -1.5555 -1.5995
C -1.6052 -1.5517 -1.5911
C -1.6091 -1.5497 -1.5914
C -1.6114 -1.5423 -1.5910
C -1.6045 -1.5524 -1.5878
C -1.6031 -1.5481 -1.5849
C -1.6050 -1.5746 -1.5847
C -1.6071 -1.5803 -1.5836
C -1.6044 -1.5726 -1.5863
C -1.6003 -1.5671 -1.5891
C -1.6042 -1.5771 -1.5907
C -1.6000 -1.5775 -1.5946
C -1.6085 -1.5827 -1.5923
C -1.6068 -1.5844 -1.5916
C -1.6107 -1.5869 -1.5962
C -1.6137 -1.5800 -1.5901
C -1.6106 -1.5736 -1.5911
C -1.6202 -1.5828 -1.5865
C -1.6047 -1.5751 -1.5883
C -1.6058 -1.5737 -1.5847
C -1.6041 -1.5754 -1.5896
C -1.6027 -1.5772 -1.5924
C -1.6050 -1.5789 -1.5927
C -1.5995 -1.5775 -1.5926
C -1.6010 -1.5779 -1.5927
C -1.6041 -1.5792 -1.5940
C -1.5978 -1.5808 -1.5929
C -1.6013 -1.5738 -1.5893
C -1.6029 -1.5737 -1.5894
C -1.5972 -1.5725 -1.5880
C -1.6056 -1.5716 -1.5874
C -1.6047 -1.5674 -1.5851
C -1.6123 -1.5720 -1.5869
C -1.6159 -1.5706 -1.5876
C -1.6146 -1.5750 -1.5855
C -1.6121 -1.5764 -1.5854
C -1.6225 -1.5767 -1.5874
C -1.6251 -1.5747 -1.5867
C -1.6223 -1.5849 -1.5918
C -1.6215 -1.5872 -1.5925
C -1.6274 -1.5858 -1.5934
C -1.6166 -1.5894 -1.5943
C -1.6091 -1.5880 -1.5941
C -1.6180 -1.5967 -1.5976
C -1.6178 -1.5841 -1.5937
C -1.6137 -1.5812 -1.5960
C -1.6232 -1.5827 -1.5906
C -1.6287 -1.5745 -1.5856
C -1.6330 -1.5717 -1.5832
C -1.6266 -1.5747 -1.5856
C -1.6218 -1.5768 -1.5873
C -1.6310 -1.5716 -1.5838
C -1.6353 -1.5679 -1.5812
C -1.6339 -1.5773 -1.5847
C -1.6366 -1.5746 -1.5832
C -1.6378 -1.5809 -1.5865
C -1.6345 -1.5754 -1.5856
C -1.6420 -1.5838 -1.5786
C -1.6390 -1.5852 -1.5941
C -1.6300 -1.5832 -1.5851
C -1.6258 -1.5866 -1.5862
C -1.6262 -1.5684 -1.5834
C -1.6277 -1.5699 -1.5833
C -1.6212 -1.5634 -1.5826
C -1.6198 -1.5629 -1.5827
C -1.6183 -1.5623 -1.5834
C -1.6174 -1.5666 -1.5839
C -1.6166 -1.5597 -1.5838
C -1.6180 -1.5605 -1.5807
C -1.6202 -1.5534 -1.5782
C -1.6142 -1.5666 -1.5827
C -1.6124 -1.5710 -1.5852
C -1.6133 -1.5657 -1.5805
C -1.6136 -1.5630 -1.5790
C -1.6145 -1.5701 -1.5806
C -1.6113 -1.5738 -1.5722
C -1.6218 -1.5584 -1.5841
C -1.6212 -1.5527 -1.5928
C -1.6226 -1.5555 -1.5770
C -1.6254 -1.5582 -1.5844
C -1.6150 -1.5819 -1.5886
C -1.6110 -1.5879 -1.5901
C -1.6088 -1.5628 -1.5792
C -1.6051 -1.5635 -1.5819
C -1.6084 -1.5581 -1.5761
C -1.6102 -1.5565 -1.5737
C -1.6029 -1.5541 -1.5757
C -1.6017 -1.5528 -1.5770
C -1.6030 -1.5475 -1.5724
C -1.6050 -1.5489 -1.5692
C -1.5995 -1.5426 -1.5757
C -1.6061 -1.5437 -1.5702
C -1.6125 -1.5441 -1.5739
C -1.6156 -1.5475 -1.5798
C -1.6159 -1.5408 -1.5694
C -1.6219 -1.5413 -1.5717
C -1.6089 -1.5372 -1.5618
C -1.6080 -1.5329 -1.5548
C -1.6131 -1.5316 -1.5549
C -1.5998 -1.5294 -1.5481
C -1.5978 -1.5258 -1.5425
C -1.5941 -1.5311 -1.5486
C -1.5889 -1.5289 -1.5429
C -1.5958 -1.5360 -1.5553
C -1.5902 -1.5369 -1.5545
C -1.6027 -1.5392 -1.5625
C -1.5985 -1.5568 -1.5778
C -1.5998 -1.5607 -1.5780
C -1.5933 -1.5551 -1.5796
C -1.5912 -1.5529 -1.5770
C -1.5896 -1.5578 -1.5795
C -1.5854 -1.5568 -1.5802
C -1.5892 -1.5562 -1.5781
C -1.5908 -1.5644 -1.5811
C -1.5927 -1.5676 -1.5824
C -1.5919 -1.5664 -1.5792
138
REAL frame=52
C -1.6021 -1.5699 -1.5790
C -1.6007 -1.5656 -1.5787
C -1.6000 -1.5697 -1.5804
C -1.6038 -1.5695 -1.5753
C -1.6038 -1.5748 -1.5793
C -1.6019 -1.5765 -1.5813
C -1.6062 -1.5759 -1.5777
C -1.6051 -1.5745 -1.5799
C -1.6096 -1.5768 -1.5779
C -1.6012 -1.5706 -1.5810
C -1.5978 -1.5682 -1.5813
C -1.6024 -1.5690 -1.5822
C -1.6048 -1.5659 -1.5801
C -1.5983 -1.5638 -1.5843
C -1.5962 -1.5558 -1.5822
C -1.5938 -1.5674 -1.5855
C -1.6019 -1.5618 -1.5884
C -1.6029 -1.5688 -1.5920
C -1.6008 -1.5759 -1.5920
C -1.6058 -1.5665 -1.5958
C -1.6061 -1.5715 -1.5988
C -1.6088 -1.5573 -1.5954
C -1.6112 -1.5555 -1.5995
C -1.6047 -1.5521 -1.5912
C -1.6091 -1.5496 -1.5914
C -1.6121 -1.5421 -1.5907
C -1.6045 -1.5525 -1.5878
C -1.6032 -1.5478 -1.5849
C -1.6049 -1.5746 -1.5847
C -1.6071 -1.5803 -1.5837
C -1.6044 -1.5726 -1.5863
C -1.6004 -1.5671 -1.5890
C -1.6043 -1.5772 -1.5907
C -1.5998 -1.5769 -1.5949
C -1.6085 -1.5825 -1.5923
C -1.6065 -1.5846 -1.5921
C -1.6106 -1.5868 -1.5960
C -1.6136 -1.5800 -1.5900
C -1.6106 -1.5736 -1.5911
C -1.6201 -1.5826 -1.5867
C -1.6047 -1.5752 -1.5884
C -1.6058 -1.5737 -1.5847
C -1.6042 -1.5752 -1.5897
C -1.6027 -1.5772 -1.5923
C -1.6048 -1.5788 -1.5922
C -1.6000 -1.5777 -1.5930
C -1.6010 -1.5778 -1.5928
C -1.6043 -1.5796 -1.5939
C -1.5977 -1.5807 -1.5930
C -1.6013 -1.5738 -1.5892
C -1.6032 -1.5737 -1.5893
C -1.5973 -1.5727 -1.5879
C -1.6057 -1.5715 -1.5874
C -1.6049 -1.5670 -1.5850
C -1.6123 -1.5719 -1.5869
C -1.6159 -1.5706 -1.5874
C -1.6147 -1.5750 -1.5855
C -1.6118 -1.5760 -1.5848
C -1.6226 -1.5767 -1.5874
C -1.6250 -1.5748 -1.5869
C -1.6225 -1.5850 -1.5918
C -1.6212 -1.5872 -1.5922
C -1.6273 -1.5856 -1.5932
C -1.6165 -1.5892 -1.5944
C -1.6091 -1.5879 -1.5940
C -1.6180 -1.5968 -1.5972
C -1.6180 -1.5842 -1.5936
C -1.6136 -1.5813 -1.5962
C -1.6233 -1.5827 -1.5906
C -1.6287 -1.5745 -1.5856
C -1.6330 -1.5717 -1.5833
C -1.6267 -1.5747 -1.5858
C -1.6218 -1.5769 -1.5872
C -1.6309 -1.5717 -1.5836
C -1.6353 -1.5678 -1.5813
C -1.6340 -1.5773 -1.5846
C -1.6364 -1.5745 -1.5831
C -1.6379 -1.5810 -1.5866
C -1.6347 -1.5754 -1.5860
C -1.6423 -1.5831 -1.5785
C -1.6397 -1.5848 -1.5940
C -1.6300 -1.5833 -1.5850
C -1.6254 -1.5860 -1.5861
C -1.6263 -1.5685 -1.5836
C -1.6276 -1.5700 -1.5834
C -1.6212 -1.5634 -1.5823
C -1.6200 -1.5627 -1.5824
C -1.6183 -1.5622 -1.5834
C -1.6172 -1.5665 -1.5839
C -1.6168 -1.5593 -1.5844
C -1.6180 -1.5605 -1.5808
C -1.6202 -1.5535 -1.5784
C -1.6144 -1.5665 -1.5828
C -1.6124 -1.5711 -1.5852
C -1.6133 -1.5655 -1.5807
C -1.6139 -1.5628 -1.5792
C -1.6145 -1.5701 -1.5807
C -1.6115 -1.5740 -1.5726
C -1.6217 -1.5583 -1.5841
C -1.6212 -1.5529 -1.5932
C -1.6228 -1.5556 -1.5769
C -1.6256 -1.5579 -1.5843
C -1.6150 -1.5818 -1.5886
C -1.6116 -1.5876 -1.5909
C -1.6088 -1.5627 -1.5791
C -1.6050 -1.5635 -1.5820
C -1.6083 -1.5580 -1.5760
C -1.6101 -1.5557 -1.5743
C -1.6029 -1.5542 -1.5757
C -1.6018 -1.5533 -1.5771
C -1.6031 -1.5475 -1.5725
C -1.6048 -1.5496 -1.5695
C -1.5997 -1.5430 -1.5751
C -1.6061 -1.5436 -1.5703
C -1.6125 -1.5440 -1.5738
C -1.6154 -1.5477 -1.5796
C -1.6159 -1.5407 -1.5694
C -1.6222 -1.5416 -1.5721
C -1.6089 -1.5373 -1.5618
C -1.6081 -1.5329 -1.5549
C -1.6130 -1.5315 -1.5548
C -1.5998 -1.5295 -1.5481
C -1.5982 -1.5262 -1.5422
C -1.5940 -1.5312 -1.5486
C -1.5891 -1.5286 -1.5426
C -1.5958 -1.5358 -1.5552
C -1.5902 -1.5367 -1.5546
C -1.6028 -1.5392 -1.5626
C -1.5984 -1.5566 -1.5776
C -1.5998 -1.5607 -1.5780
C -1.5933 -1.5551 -1.5796
C -1.5914 -1.5527 -1.5770
C -1.5896 -1.5578 -1.5796
C -1.5853 -1.5565 -1.5801
C -1.5892 -1.5564 -1.5782
C -1.5907 -1.5645 -1.5811
C -1.5927 -1.5675 -1.5823
C -1.5920 -1.5665 -1.5792
138
REAL frame=53
C -1.6020 -1.5698 -1.5788
C -1.6011 -1.5657 -1.5784
C -1.5998 -1.5704 -1.5802
C -1.6041 -1.5697 -1.5755
C -1.6039 -1.5748 -1.5793
C -1.6018 -1.5766 -1.5809
C -1.6064 -1.5755 -1.5779
C -1.6051 -1.5745 -1.5799
C -1.6097 -1.5768 -1.5779
C -1.6011 -1.5704 -1.5810
C -1.5980 -1.5684 -1.5817
C -1.6024 -1.5691 -1.5822
C -1.6039 -1.5659 -1.5800
C -1.5982 -1.5638 -1.5844
C -1.5962 -1.5565 -1.5819
C -1.5937 -1.5675 -1.5853
C -1.6018 -1.5616 -1.5884
C -1.6028 -1.5687 -1.5919
C -1.6005 -1.5760 -1.5916
C -1.6060 -1.5666 -1.5957
C -1.6057 -1.5716 -1.5988
C -1.6089 -1.5573 -1.5955
C -1.6112 -1.5555 -1.5995
C -1.6042 -1.5524 -1.5913
C -1.6091 -1.5496 -1.5914
C -1.6128 -1.5420 -1.5905
C -1.6044 -1.5526 -1.5879
C -1.6033 -1.5473 -1.5850
C -1.6049 -1.5745 -1.5846
C -1.6072 -1.5804 -1.5838
C -1.6045 -1.5727 -1.5863
C -1.6005 -1.5674 -1.5886
C -1.6044 -1.5773 -1.5906
C -1.5998 -1.5765 -1.5950
C -1.6086 -1.5824 -1.5923
C -1.6061 -1.5847 -1.5926
C -1.6104 -1.5868 -1.5958
C -1.6135 -1.5799 -1.5899
C -1.6106 -1.5736 -1.5910
C -1.6199 -1.5825 -1.5869
C -1.6047 -1.5752 -1.5884
C -1.6059 -1.5738 -1.5848
C -1.6042 -1.5750 -1.5897
C -1.6026 -1.5771 -1.5922
C -1.6048 -1.5786 -1.5920
C -1.6005 -1.5780 -1.5934
C -1.6010 -1.5778 -1.5928
C -1.6045 -1.5799 -1.5938
C -1.5975 -1.5803 -1.5932
C -1.6014 -1.5737 -1.5891
C -1.6033 -1.5736 -1.5892
C -1.5975 -1.5728 -1.5879
C -1.6058 -1.5714 -1.5874
C -1.6051 -1.5667 -1.5849
C -1.6124 -1.5719 -1.5869
C -1.6160 -1.5705 -1.5873
C -1.6148 -1.5749 -1.5856
C -1.6114 -1.5755 -1.5843
C -1.6228 -1.5767 -1.5873
C -1.6248 -1.5749 -1.5871
C -1.6226 -1.5851 -1.5917
C -1.6210 -1.5872 -1.5919
C -1.6274 -1.5857 -1.5929
C -1.6165 -1.5890 -1.5944
C -1.6092 -1.5878 -1.5939
C -1.6179 -1.5969 -1.5968
C -1.6181 -1.5844 -1.5936
C -1.6136 -1.5813 -1.5962
C -1.6234 -1.5828 -1.5906
C -1.6287 -1.5744 -1.5856
C -1.6330 -1.5717 -1.5834
C -1.6267 -1.5747 -1.5859
C -1.6219 -1.5769 -1.5871
C -1.6307 -1.5718 -1.5835
C -1.6352 -1.5678 -1.5815
C -1.6341 -1.5773 -1.5846
C -1.6363 -1.5741 -1.5832
C -1.6379 -1.5811 -1.5865
C -1.6348 -1.5753 -1.5864
C -1.6426 -1.5824 -1.5786
C -1.6403 -1.5846 -1.5940
C -1.6299 -1.5833 -1.5849
C -1.6251 -1.5857 -1.5861
C -1.6264 -1.5686 -1.5837
C -1.6275 -1.5701 -1.5837
C -1.6212 -1.5633 -1.5821
C -1.6203 -1.5624 -1.5821
C -1.6183 -1.5622 -1.5833
C -1.6170 -1.5661 -1.5840
C -1.6171 -1.5590 -1.5850
C -1.6179 -1.5605 -1.5809
C -1.6203 -1.5536 -1.5785
C -1.6145 -1.5663 -1.5828
C -1.6124 -1.5714 -1.5851
C -1.6133 -1.5654 -1.5809
C -1.6145 -1.5626 -1.5793
C -1.6146 -1.5701 -1.5808
C -1.6115 -1.5741 -1.5729
C -1.6217 -1.5583 -1.5841
C -1.6214 -1.5530 -1.5934
C -1.6228 -1.5557 -1.5768
C -1.6258 -1.5575 -1.5843
C -1.6149 -1.5817 -1.5887
C -1.6120 -1.5873 -1.5914
C -1.6089 -1.5626 -1.5791
C -1.6049 -1.5635 -1.5820
C -1.6082 -1.5580 -1.5759
C -1.6100 -1.5550 -1.5749
C -1.6029 -1.5543 -1.5756
C -1.6018 -1.5536 -1.5772
C -1.6033 -1.5474 -1.5726
C -1.6044 -1.5504 -1.5699
C -1.5999 -1.5434 -1.5743
C -1.6062 -1.5436 -1.5703
C -1.6125 -1.5441 -1.5737
C -1.6153 -1.5478 -1.5796
C -1.6158 -1.5407 -1.5695
C -1.6224 -1.5417 -1.5721
C -1.6089 -1.5375 -1.5618
C -1.6082 -1.5328 -1.5549
C -1.6130 -1.5315 -1.5548
C -1.5998 -1.5296 -1.5481
C -1.5987 -1.5266 -1.5420
C -1.5940 -1.5313 -1.5484
C -1.5892 -1.5284 -1.5424
C -1.5958 -1.5356 -1.5552
C -1.5903 -1.5366 -1.5548
C -1.6029 -1.5391 -1.5626
C -1.5983 -1.5566 -1.5774
C -1.5998 -1.5608 -1.5780
C -1.5934 -1.5551 -1.5795
C -1.5915 -1.5526 -1.5772
C -1.5896 -1.5578 -1.5797
C -1.5852 -1.5561 -1.5801
C -1.5894 -1.5567 -1.5785
C -1.5906 -1.5646 -1.5811
C -1.5927 -1.5675 -1.5822
C -1.5920 -1.5665 -1.5792
138
REAL frame=54
C -1.6020 -1.5697 -1.5785
C -1.6015 -1.5660 -1.5782
C -1.5996 -1.5711 -1.5805
C -1.6045 -1.5699 -1.5757
C -1.6039 -1.5747 -1.5793
C -1.6018 -1.5766 -1.5806
C -1.6066 -1.5752 -1.5779
C -1.6051 -1.5745 -1.5799
C -1.6097 -1.5768 -1.5778
C -1.6011 -1.5704 -1.5810
C -1.5980 -1.5684 -1.5822
C -1.6024 -1.5691 -1.5821
C -1.6032 -1.5662 -1.5799
C -1.5980 -1.5639 -1.5844
C -1.5962 -1.5574 -1.5817
C -1.5938 -1.5678 -1.5851
C -1.6017 -1.5614 -1.5885
C -1.6027 -1.5686 -1.5920
C -1.6003 -1.5760 -1.5914
C -1.6061 -1.5667 -1.5957
C -1.6054 -1.5719 -1.5989
C -1.6090 -1.5574 -1.5956
C -1.6113 -1.5555 -1.5995
C -1.6038 -1.5527 -1.5915
C -1.6091 -1.5496 -1.5913
C -1.6133 -1.5420 -1.5905
C -1.6044 -1.5525 -1.5880
C -1.6036 -1.5468 -1.5851
C -1.6048 -1.5744 -1.5844
C -1.6072 -1.5805 -1.5839
C -1.6045 -1.5727 -1.5864
C -1.6007 -1.5676 -1.5880
C -1.6045 -1.5773 -1.5905
C -1.5999 -1.5766 -1.5949
C -1.6086 -1.5823 -1.5924
C -1.6058 -1.5847 -1.5930
C -1.6101 -1.5868 -1.5955
C -1.6134 -1.5798 -1.5898
C -1.6106 -1.5735 -1.5908
C -1.6199 -1.5823 -1.5870
C -1.6046 -1.5752 -1.5884
C -1.6060 -1.5738 -1.5849
C -1.6042 -1.5748 -1.5896
C -1.6026 -1.5772 -1.5921
C -1.6049 -1.5784 -1.5922
C -1.6009 -1.5782 -1.5935
C -1.6011 -1.5777 -1.5928
C -1.6047 -1.5800 -1.5939
C -1.5972 -1.5796 -1.5935
C -1.6015 -1.5736 -1.5891
C -1.6032 -1.5735 -1.5892
C -1.5976 -1.5728 -1.5880
C -1.6059 -1.5714 -1.5874
C -1.6053 -1.5666 -1.5848
C -1.6125 -1.5720 -1.5868
C -1.6160 -1.5705 -1.5872
C -1.6150 -1.5748 -1.5857
C -1.6111 -1.5749 -1.5839
C -1.6229 -1.5767 -1.5873
C -1.6246 -1.5750 -1.5871
C -1.6227 -1.5851 -1.5917
C -1.6211 -1.5870 -1.5916
C -1.6276 -1.5860 -1.5925
C -1.6164 -1.5887 -1.5944
C -1.6093 -1.5877 -1.5939
C -1.6178 -1.5970 -1.5966
C -1.6181 -1.5847 -1.5937
C -1.6136 -1.5814 -1.5961
C -1.6235 -1.5828 -1.5906
C -1.6286 -1.5743 -1.5856
C -1.6329 -1.5716 -1.5835
C -1.6268 -1.5747 -1.5859
C -1.6221 -1.5770 -1.5870
C -1.6305 -1.5719 -1.5834
C -1.6347 -1.5679 -1.5819
C -1.6342 -1.5774 -1.5845
C -1.6364 -1.5738 -1.5832
C -1.6380 -1.5811 -1.5865
C -1.6349 -1.5752 -1.5869
C -1.6430 -1.5818 -1.5789
C -1.6406 -1.5849 -1.5939
C -1.6298 -1.5833 -1.5849
C -1.6249 -1.5856 -1.5860
C -1.6266 -1.5687 -1.5836
C -1.6274 -1.5702 -1.5839
C -1.6212 -1.5633 -1.5820
C -1.6204 -1.5621 -1.5818
C -1.6183 -1.5622 -1.5832
C -1.6170 -1.5657 -1.5842
C -1.6173 -1.5587 -1.5856
C -1.6179 -1.5605 -1.5811
C -1.6203 -1.5536 -1.5786
C -1.6146 -1.5661 -1.5828
C -1.6124 -1.5716 -1.5850
C -1.6133 -1.5653 -1.5811
C -1.6153 -1.5624 -1.5795
C -1.6146 -1.5702 -1.5809
C -1.6114 -1.5742 -1.5730
C -1.6216 -1.5583 -1.5841
C -1.6217 -1.5532 -1.5934
C -1.6228 -1.5557 -1.5768
C -1.6260 -1.5572 -1.5845
C -1.6149 -1.5816 -1.5887
C -1.6120 -1.5870 -1.5917
C -1.6089 -1.5625 -1.5792
C -1.6048 -1.5635 -1.5820
C -1.6081 -1.5580 -1.5757
C -1.6099 -1.5545 -1.5754
C -1.6029 -1.5543 -1.5755
C -1.6018 -1.5537 -1.5771
C -1.6034 -1.5475 -1.5727
C -1.6041 -1.5510 -1.5702
C -1.6002 -1.5436 -1.5735
C -1.6063 -1.5436 -1.5703
C -1.6125 -1.5441 -1.5737
C -1.6154 -1.5476 -1.5796
C -1.6157 -1.5407 -1.5694
C -1.6225 -1.5416 -1.5717
C -1.6090 -1.5375 -1.5620
C -1.6083 -1.5328 -1.5549
C -1.6130 -1.5314 -1.5547
C -1.5998 -1.5297 -1.5481
C -1.5992 -1.5267 -1.5420
C -1.5939 -1.5313 -1.5483
C -1.5891 -1.5286 -1.5423
C -1.5957 -1.5355 -1.5552
C -1.5905 -1.5366 -1.5551
C -1.6030 -1.5391 -1.5626
C -1.5983 -1.5566 -1.5773
C -1.5998 -1.5608 -1.5780
C -1.5934 -1.5551 -1.5795
C -1.5916 -1.5526 -1.5776
C -1.5896 -1.5578 -1.5798
C -1.5851 -1.5556 -1.5801
C -1.5897 -1.5569 -1.5788
C -1.5907 -1.5647 -1.5810
C -1.5926 -1.5675 -1.5821
C -1.5920 -1.5666 -1.5792
138
REAL frame=55
C -1.6021 -1.5696 -1.5783
C -1.6018 -1.5662 -1.5779
C -1.5996 -1.5717 -1.5810
C -1.6048 -1.5701 -1.5758
C -1.6040 -1.5746 -1.5793
C -1.6018 -1.5766 -1.5803
C -1.6066 -1.5751 -1.5778
C -1.6051 -1.5745 -1.5798
C -1.6097 -1.5768 -1.5778
C -1.6010 -1.5704 -1.5810
C -1.5979 -1.5683 -1.5827
C -1.6023 -1.5692 -1.5821
C -1.6027 -1.5664 -1.5797
C -1.5978 -1.5639 -1.5844
C -1.5961 -1.5580 -1.5816
C -1.5941 -1.5681 -1.5849
C -1.6016 -1.5613 -1.5885
C -1.6026 -1.5685 -1.5920
C -1.6002 -1.5760 -1.5913
C -1.6063 -1.5668 -1.5957
C -1.6052 -1.5723 -1.5989
C -1.6090 -1.5574 -1.5956
C -1.6114 -1.5554 -1.5995
C -1.6034 -1.5529 -1.5918
C -1.6090 -1.5497 -1.5912
C -1.6137 -1.5419 -1.5905
C -1.6044 -1.5524 -1.5882
C -1.6039 -1.5465 -1.5851
C -1.6048 -1.5744 -1.5843
C -1.6073 -1.5805 -1.5840
C -1.6045 -1.5728 -1.5865
C -1.6010 -1.5679 -1.5873
C -1.6046 -1.5773 -1.5905
C -1.6002 -1.5771 -1.5947
C -1.6086 -1.5822 -1.5924
C -1.6056 -1.5845 -1.5931
C -1.6099 -1.5868 -1.5953
C -1.6133 -1.5797 -1.5897
C -1.6105 -1.5735 -1.5906
C -1.6198 -1.5821 -1.5872
C -1.6047 -1.5751 -1.5884
C -1.6062 -1.5738 -1.5851
C -1.6041 -1.5745 -1.5894
C -1.6026 -1.5772 -1.5921
C -1.6051 -1.5781 -1.5926
C -1.6012 -1.5785 -1.5934
C -1.6013 -1.5777 -1.5928
C -1.6048 -1.5800 -1.5941
C -1.5969 -1.5788 -1.5938
C -1.6015 -1.5735 -1.5890
C -1.6029 -1.5733 -1.5891
C -1.5977 -1.5727 -1.5880
C -1.6060 -1.5714 -1.5875
C -1.6054 -1.5667 -1.5849
C -1.6126 -1.5722 -1.5867
C -1.6160 -1.5703 -1.5871
C -1.6151 -1.5746 -1.5859
C -1.6109 -1.5744 -1.5835
C -1.6229 -1.5768 -1.5874
C -1.6244 -1.5751 -1.5869
C -1.6228 -1.5851 -1.5917
C -1.6213 -1.5869 -1.5914
C -1.6280 -1.5865 -1.5923
C -1.6163 -1.5886 -1.5944
C -1.6094 -1.5877 -1.5940
C -1.6177 -1.5970 -1.5965
C -1.6181 -1.5849 -1.5939
C -1.6137 -1.5815 -1.5960
C -1.6236 -1.5828 -1.5906
C -1.6285 -1.5741 -1.5855
C -1.6329 -1.5716 -1.5836
C -1.6269 -1.5746 -1.5859
C -1.6224 -1.5770 -1.5870
C -1.6304 -1.5721 -1.5835
C -1.6341 -1.5680 -1.5821
C -1.6342 -1.5776 -1.5844
C -1.6366 -1.5734 -1.5833
C -1.6382 -1.5810 -1.5864
C -1.6349 -1.5751 -1.5872
C -1.6433 -1.5815 -1.5791
C -1.6407 -1.5856 -1.5939
C -1.6297 -1.5832 -1.5849
C -1.6249 -1.5859 -1.5860
C -1.6267 -1.5688 -1.5835
C -1.6273 -1.5702 -1.5842
C -1.6212 -1.5633 -1.5819
C -1.6204 -1.5617 -1.5815
C -1.6183 -1.5622 -1.5831
C -1.6171 -1.5653 -1.5845
C -1.6175 -1.5585 -1.5858
C -1.6179 -1.5604 -1.5814
C -1.6203 -1.5537 -1.5787
C -1.6147 -1.5660 -1.5828
C -1.6124 -1.5716 -1.5849
C -1.6133 -1.5651 -1.5812
C -1.6160 -1.5622 -1.5797
C -1.6146 -1.5703 -1.5810
C -1.6113 -1.5741 -1.5729
C -1.6216 -1.5583 -1.5841
C -1.6220 -1.5532 -1.5932
C -1.6226 -1.5556 -1.5768
C -1.6261 -1.5569 -1.5848
C -1.6149 -1.5815 -1.5889
C -1.6117 -1.5869 -1.5916
C -1.6089 -1.5624 -1.5793
C -1.6048 -1.5635 -1.5821
C -1.6079 -1.5580 -1.5756
C -1.6096 -1.5542 -1.5756
C -1.6029 -1.5543 -1.5754
C -1.6017 -1.5536 -1.5770
C -1.6036 -1.5475 -1.5729
C -1.6040 -1.5513 -1.5705
C -1.6004 -1.5436 -1.5729
C -1.6063 -1.5437 -1.5702
C -1.6125 -1.5442 -1.5738
C -1.6155 -1.5472 -1.5797
C -1.6156 -1.5407 -1.5694
C -1.6226 -1.5414 -1.5711
C -1.6091 -1.5375 -1.5621
C -1.6084 -1.5328 -1.5549
C -1.6131 -1.5314 -1.5547
C -1.5999 -1.5298 -1.5481
C -1.5996 -1.5268 -1.5420
C -1.5939 -1.5313 -1.5481
C -1.5888 -1.5290 -1.5423
C -1.5957 -1.5354 -1.5553
C -1.5908 -1.5367 -1.5553
C -1.6031 -1.5390 -1.5625
C -1.5983 -1.5568 -1.5772
C -1.5998 -1.5608 -1.5780
C -1.5934 -1.5551 -1.5793
C -1.5916 -1.5528 -1.5781
C -1.5896 -1.5578 -1.5799
C -1.5850 -1.5552 -1.5801
C -1.5900 -1.5570 -1.5792
C -1.5907 -1.5649 -1.5809
C -1.5926 -1.5675 -1.5820
C -1.5920 -1.5666 -1.5793
138
REAL frame=56
C -1.6021 -1.5696 -1.5782
C -1.6018 -1.5662 -1.5775
C -1.5997 -1.5720 -1.5815
C -1.6051 -1.5702 -1.5759
C -1.6040 -1.5744 -1.5793
C -1.6018 -1.5766 -1.5802
C -1.6065 -1.5750 -1.5776
C -1.6051 -1.5744 -1.5797
C -1.6096 -1.5769 -1.5778
C -1.6011 -1.5704 -1.5809
C -1.5977 -1.5681 -1.5832
C -1.6022 -1.5691 -1.5821
C -1.6026 -1.5667 -1.5793
C -1.5977 -1.5639 -1.5844
C -1.5960 -1.5584 -1.5817
C -1.5945 -1.5684 -1.5847
C -1.6015 -1.5613 -1.5884
C -1.6025 -1.5685 -1.5920
C -1.6000 -1.5760 -1.5914
C -1.6065 -1.5668 -1.5957
C -1.6052 -1.5727 -1.5989
C -1.6091 -1.5574 -1.5956
C -1.6115 -1.5554 -1.5995
C -1.6031 -1.5532 -1.5922
C -1.6090 -1.5498 -1.5912
C -1.6138 -1.5420 -1.5906
C -1.6044 -1.5522 -1.5883
C -1.6042 -1.5463 -1.5851
C -1.6049 -1.5745 -1.5841
C -1.6073 -1.5806 -1.5841
C -1.6045 -1.5729 -1.5866
C -1.6016 -1.5681 -1.5867
C -1.6047 -1.5772 -1.5906
C -1.6007 -1.5778 -1.5944
C -1.6086 -1.5821 -1.5925
C -1.6056 -1.5842 -1.5930
C -1.6097 -1.5868 -1.5951
C -1.6132 -1.5795 -1.5897
C -1.6105 -1.5735 -1.5904
C -1.6198 -1.5819 -1.5873
C -1.6047 -1.5751 -1.5885
C -1.6062 -1.5739 -1.5852
C -1.6041 -1.5743 -1.5892
C -1.6026 -1.5773 -1.5921
C -1.6053 -1.5778 -1.5932
C -1.6012 -1.5787 -1.5930
C -1.6014 -1.5777 -1.5928
C -1.6048 -1.5798 -1.5944
C -1.5967 -1.5780 -1.5940
C -1.6016 -1.5734 -1.5889
C -1.6025 -1.5731 -1.5890
C -1.5977 -1.5724 -1.5880
C -1.6061 -1.5714 -1.5875
C -1.6053 -1.5668 -1.5850
C -1.6128 -1.5723 -1.5866
C -1.6161 -1.5702 -1.5871
C -1.6152 -1.5745 -1.5860
C -1.6107 -1.5738 -1.5833
C -1.6230 -1.5770 -1.5874
C -1.6243 -1.5751 -1.5867
C -1.6228 -1.5851 -1.5916
C -1.6216 -1.5869 -1.5914
C -1.6284 -1.5870 -1.5921
C -1.6163 -1.5885 -1.5944
C -1.6094 -1.5877 -1.5942
C -1.6176 -1.5970 -1.5966
C -1.6181 -1.5850 -1.5941
C -1.6138 -1.5815 -1.5958
C -1.6237 -1.5828 -1.5906
C -1.6284 -1.5740 -1.5855
C -1.6329 -1.5715 -1.5837
C -1.6270 -1.5746 -1.5858
C -1.6228 -1.5770 -1.5872
C -1.6303 -1.5722 -1.5836
C -1.6333 -1.5683 -1.5823
C -1.6342 -1.5777 -1.5844
C -1.6369 -1.5732 -1.5834
C -1.6384 -1.5809 -1.5864
C -1.6347 -1.5749 -1.5876
C -1.6435 -1.5815 -1.5792
C -1.6406 -1.5866 -1.5938
C -1.6296 -1.5831 -1.5849
C -1.6250 -1.5864 -1.5859
C -1.6267 -1.5689 -1.5833
C -1.6272 -1.5703 -1.5844
C -1.6213 -1.5632 -1.5818
C -1.6203 -1.5612 -1.5811
C -1.6183 -1.5621 -1.5831
C -1.6173 -1.5650 -1.5848
C -1.6175 -1.5584 -1.5857
C -1.6179 -1.5604 -1.5817
C -1.6204 -1.5538 -1.5787
C -1.6147 -1.5659 -1.5827
C -1.6124 -1.5715 -1.5849
C -1.6134 -1.5650 -1.5812
C -1.6166 -1.5620 -1.5799
C -1.6145 -1.5703 -1.5811
C -1.6111 -1.5740 -1.5727
C -1.6215 -1.5582 -1.5841
C -1.6222 -1.5531 -1.5929
C -1.6224 -1.5555 -1.5769
C -1.6261 -1.5568 -1.5851
C -1.6149 -1.5813 -1.5891
C -1.6112 -1.5868 -1.5913
C -1.6088 -1.5623 -1.5795
C -1.6047 -1.5636 -1.5821
C -1.6079 -1.5579 -1.5755
C -1.6092 -1.5541 -1.5756
C -1.6029 -1.5542 -1.5753
C -1.6016 -1.5532 -1.5767
C -1.6036 -1.5475 -1.5730
C -1.6042 -1.5513 -1.5706
C -1.6005 -1.5435 -1.5727
C -1.6063 -1.5439 -1.5701
C -1.6125 -1.5443 -1.5740
C -1.6158 -1.5469 -1.5799
C -1.6155 -1.5407 -1.5694
C -1.6225 -1.5411 -1.5703
C -1.6092 -1.5374 -1.5623
C -1.6084 -1.5328 -1.5549
C -1.6132 -1.5314 -1.5547
C -1.5999 -1.5299 -1.5481
C -1.5999 -1.5267 -1.5422
C -1.5939 -1.5313 -1.5479
C -1.5885 -1.5295 -1.5424
C -1.5956 -1.5355 -1.5554
C -1.5912 -1.5368 -1.5555
C -1.6032 -1.5390 -1.5624
C -1.5983 -1.5569 -1.5771
C -1.5998 -1.5608 -1.5779
C -1.5935 -1.5551 -1.5792
C -1.5916 -1.5530 -1.5787
C -1.5896 -1.5577 -1.5801
C -1.5849 -1.5550 -1.5802
C -1.5902 -1.5571 -1.5795
C -1.5908 -1.5650 -1.5808
C -1.5925 -1.5675 -1.5818
C -1.5920 -1.5666 -1.5794
138
REAL frame=57
C -1.6023 -1.5697 -1.5782
C -1.6015 -1.5661 -1.5771
C -1.5999 -1.5720 -1.5818
C -1.6052 -1.5702 -1.5758
C -1.6039 -1.5742 -1.5792
C -1.6020 -1.5765 -1.5803
C -1.6064 -1.5750 -1.5774
C -1.6052 -1.5742 -1.5796
C -1.6096 -1.5770 -1.5778
C -1.6011 -1.5705 -1.5808
C -1.5977 -1.5679 -1.5834
C -1.6020 -1.5691 -1.5821
C -1.6028 -1.5668 -1.5791
C -1.5976 -1.5640 -1.5843
C -1.5956 -1.5585 -1.5819
C -1.5949 -1.5685 -1.5847
C -1.6013 -1.5613 -1.5884
C -1.6024 -1.5686 -1.5920
C -1.5999 -1.5759 -1.5917
C -1.6066 -1.5669 -1.5957
C -1.6053 -1.5731 -1.5989
C -1.6092 -1.5573 -1.5956
C -1.6115 -1.5554 -1.5994
C -1.6028 -1.5534 -1.5926
C -1.6091 -1.5498 -1.5913
C -1.6137 -1.5421 -1.5906
C -1.6044 -1.5520 -1.5883
C -1.6046 -1.5462 -1.5851
C -1.6050 -1.5747 -1.5840
C -1.6073 -1.5806 -1.5841
C -1.6044 -1.5729 -1.5867
C -1.6022 -1.5682 -1.5861
C -1.6047 -1.5772 -1.5907
C -1.6013 -1.5785 -1.5940
C -1.6085 -1.5821 -1.5925
C -1.6059 -1.5840 -1.5927
C -1.6096 -1.5867 -1.5951
C -1.6130 -1.5794 -1.5898
C -1.6104 -1.5736 -1.5902
C -1.6199 -1.5816 -1.5875
C -1.6048 -1.5750 -1.5886
C -1.6063 -1.5738 -1.5854
C -1.6040 -1.5742 -1.5889
C -1.6026 -1.5774 -1.5921
C -1.6054 -1.5776 -1.5938
C -1.6011 -1.5789 -1.5924
C -1.6015 -1.5777 -1.5927
C -1.6048 -1.5796 -1.5947
C -1.5966 -1.5774 -1.5941
C -1.6017 -1.5733 -1.5889
C -1.6022 -1.5728 -1.5889
C -1.5977 -1.5721 -1.5879
C -1.6061 -1.5714 -1.5875
C -1.6053 -1.5671 -1.5851
C -1.6130 -1.5724 -1.5866
C -1.6161 -1.5702 -1.5870
C -1.6152 -1.5744 -1.5861
C -1.6106 -1.5735 -1.5832
C -1.6230 -1.5771 -1.5875
C -1.6244 -1.5750 -1.5866
C -1.6228 -1.5850 -1.5915
C -1.6219 -1.5869 -1.5915
C -1.6288 -1.5875 -1.5920
C -1.6163 -1.5886 -1.5944
C -1.6093 -1.5876 -1.5944
C -1.6176 -1.5969 -1.5970
C -1.6181 -1.5849 -1.5943
C -1.6138 -1.5816 -1.5957
C -1.6238 -1.5829 -1.5907
C -1.6283 -1.5739 -1.5855
C -1.6329 -1.5714 -1.5838
C -1.6271 -1.5746 -1.5856
C -1.6232 -1.5769 -1.5873
C -1.6303 -1.5724 -1.5837
C -1.6326 -1.5686 -1.5823
C -1.6341 -1.5778 -1.5844
C -1.6372 -1.5733 -1.5833
C -1.6386 -1.5808 -1.5863
C -1.6345 -1.5749 -1.5879
C -1.6437 -1.5816 -1.5792
C -1.6402 -1.5878 -1.5936
C -1.6295 -1.5831 -1.5849
C -1.6252 -1.5870 -1.5859
C -1.6267 -1.5689 -1.5832
C -1.6272 -1.5705 -1.5846
C -1.6214 -1.5632 -1.5817
C -1.6200 -1.5608 -1.5808
C -1.6183 -1.5620 -1.5832
C -1.6175 -1.5648 -1.5850
C -1.6174 -1.5585 -1.5853
C -1.6178 -1.5603 -1.5818
C -1.6204 -1.5538 -1.5788
C -1.6148 -1.5658 -1.5827
C -1.6125 -1.5713 -1.5850
C -1.6136 -1.5648 -1.5812
C -1.6170 -1.5619 -1.5800
C -1.6145 -1.5704 -1.5812
C -1.6108 -1.5738 -1.5724
C -1.6215 -1.5582 -1.5841
C -1.6222 -1.5529 -1.5926
C -1.6222 -1.5554 -1.5770
C -1.6261 -1.5569 -1.5853
C -1.6150 -1.5812 -1.5893
C -1.6105 -1.5868 -1.5908
C -1.6087 -1.5622 -1.5796
C -1.6047 -1.5636 -1.5821
C -1.6079 -1.5579 -1.5755
C -1.6087 -1.5541 -1.5753
C -1.6029 -1.5541 -1.5753
C -1.6015 -1.5528 -1.5764
C -1.6037 -1.5476 -1.5730
C -1.6046 -1.5510 -1.5705
C -1.6004 -1.5433 -1.5729
C -1.6064 -1.5441 -1.5700
C -1.6125 -1.5443 -1.5742
C -1.6161 -1.5466 -1.5801
C -1.6154 -1.5408 -1.5693
C -1.6224 -1.5409 -1.5696
C -1.6094 -1.5372 -1.5624
C -1.6084 -1.5328 -1.5550
C -1.6134 -1.5315 -1.5547
C -1.6001 -1.5299 -1.5481
C -1.6001 -1.5265 -1.5423
C -1.5939 -1.5313 -1.5477
C -1.5881 -1.5299 -1.5425
C -1.5955 -1.5355 -1.5555
C -1.5914 -1.5370 -1.5557
C -1.6033 -1.5390 -1.5624
C -1.5984 -1.5571 -1.5770
C -1.5998 -1.5608 -1.5779
C -1.5935 -1.5551 -1.5791
C -1.5918 -1.5531 -1.5794
C -1.5895 -1.5576 -1.5803
C -1.5849 -1.5549 -1.5803
C -1.5903 -1.5570 -1.5797
C -1.5909 -1.5650 -1.5808
C -1.5924 -1.5675 -1.5817
C -1.5920 -1.5666 -1.5794
138
REAL frame=58
C -1.6025 -1.5698 -1.5782
C -1.6010 -1.5660 -1.5769
C -1.6002 -1.5716 -1.5819
C -1.6052 -1.5702 -1.5756
C -1.6039 -1.5740 -1.5790
C -1.6022 -1.5762 -1.5805
C -1.6063 -1.5751 -1.5771
C -1.6051 -1.5741 -1.5795
C -1.6095 -1.5771 -1.5778
C -1.6012 -1.5706 -1.5808
C -1.5977 -1.5680 -1.5834
C -1.6018 -1.5690 -1.5820
C -1.6034 -1.5669 -1.5789
C -1.5976 -1.5641 -1.5843
C -1.5952 -1.5584 -1.5822
C -1.5952 -1.5685 -1.5849
C -1.6011 -1.5614 -1.5883
C -1.6023 -1.5687 -1.5920
C -1.5998 -1.5759 -1.5921
C -1.6066 -1.5669 -1.5958
C -1.6057 -1.5734 -1.5989
C -1.6093 -1.5573 -1.5956
C -1.6116 -1.5554 -1.5994
C -1.6026 -1.5535 -1.5930
C -1.6091 -1.5499 -1.5915
C -1.6133 -1.5422 -1.5907
C -1.6044 -1.5518 -1.5883
C -1.6049 -1.5462 -1.5850
C -1.6052 -1.5749 -1.5840
C -1.6073 -1.5805 -1.5842
C -1.6043 -1.5730 -1.5868
C -1.6030 -1.5681 -1.5857
C -1.6047 -1.5771 -1.5908
C -1.6019 -1.5791 -1.5936
C -1.6085 -1.5821 -1.5925
C -1.6062 -1.5838 -1.5923
C -1.6096 -1.5867 -1.5952
C -1.6130 -1.5792 -1.5899
C -1.6103 -1.5736 -1.5899
C -1.6199 -1.5814 -1.5876
C -1.6049 -1.5749 -1.5886
C -1.6064 -1.5738 -1.5856
C -1.6040 -1.5741 -1.5887
C -1.6026 -1.5775 -1.5921
C -1.6056 -1.5774 -1.5942
C -1.6009 -1.5789 -1.5917
C -1.6016 -1.5776 -1.5927
C -1.6047 -1.5793 -1.5950
C -1.5965 -1.5772 -1.5941
C -1.6019 -1.5732 -1.5889
C -1.6019 -1.5726 -1.5888
C -1.5978 -1.5718 -1.5877
C -1.6062 -1.5713 -1.5874
C -1.6051 -1.5673 -1.5853
C -1.6131 -1.5723 -1.5866
C -1.6161 -1.5701 -1.5869
C -1.6153 -1.5744 -1.5861
C -1.6106 -1.5733 -1.5831
C -1.6230 -1.5771 -1.5876
C -1.6247 -1.5750 -1.5865
C -1.6229 -1.5850 -1.5914
C -1.6221 -1.5870 -1.5918
C -1.6291 -1.5878 -1.5921
C -1.6163 -1.5887 -1.5943
C -1.6093 -1.5877 -1.5945
C -1.6176 -1.5967 -1.5974
C -1.6181 -1.5848 -1.5943
C -1.6139 -1.5817 -1.5956
C -1.6238 -1.5830 -1.5907
C -1.6282 -1.5739 -1.5855
C -1.6329 -1.5712 -1.5838
C -1.6272 -1.5746 -1.5854
C -1.6237 -1.5768 -1.5874
C -1.6304 -1.5725 -1.5839
C -1.6322 -1.5690 -1.5823
C -1.6341 -1.5778 -1.5844
C -1.6374 -1.5736 -1.5833
C -1.6387 -1.5807 -1.5863
C -1.6343 -1.5748 -1.5884
C -1.6437 -1.5819 -1.5791
C -1.6399 -1.5889 -1.5932
C -1.6294 -1.5830 -1.5849
C -1.6255 -1.5875 -1.5858
C -1.6266 -1.5689 -1.5832
C -1.6272 -1.5707 -1.5847
C -1.6215 -1.5631 -1.5816
C -1.6197 -1.5603 -1.5804
C -1.6184 -1.5619 -1.5834
C -1.6178 -1.5648 -1.5852
C -1.6171 -1.5587 -1.5846
C -1.6178 -1.5603 -1.5819
C -1.6204 -1.5539 -1.5788
C -1.6149 -1.5657 -1.5828
C -1.6126 -1.5709 -1.5851
C -1.6137 -1.5648 -1.5812
C -1.6170 -1.5618 -1.5800
C -1.6145 -1.5704 -1.5812
C -1.6107 -1.5736 -1.5721
C -1.6214 -1.5582 -1.5841
C -1.6220 -1.5526 -1.5922
C -1.6219 -1.5554 -1.5771
C -1.6259 -1.5571 -1.5854
C -1.6150 -1.5811 -1.5895
C -1.6100 -1.5868 -1.5902
C -1.6085 -1.5621 -1.5797
C -1.6047 -1.5636 -1.5821
C -1.6079 -1.5579 -1.5756
C -1.6083 -1.5543 -1.5748
C -1.6029 -1.5541 -1.5754
C -1.6013 -1.5523 -1.5761
C -1.6037 -1.5477 -1.5729
C -1.6052 -1.5505 -1.5704
C -1.6002 -1.5432 -1.5735
C -1.6065 -1.5442 -1.5700
C -1.6126 -1.5444 -1.5744
C -1.6165 -1.5466 -1.5803
C -1.6153 -1.5408 -1.5693
C -1.6221 -1.5407 -1.5694
C -1.6095 -1.5370 -1.5624
C -1.6084 -1.5329 -1.5550
C -1.6136 -1.5316 -1.5546
C -1.6002 -1.5299 -1.5480
C -1.6002 -1.5263 -1.5425
C -1.5939 -1.5314 -1.5476
C -1.5878 -1.5301 -1.5426
C -1.5955 -1.5356 -1.5555
C -1.5916 -1.5371 -1.5558
C -1.6033 -1.5389 -1.5623
C -1.5984 -1.5572 -1.5770
C -1.5999 -1.5608 -1.5778
C -1.5934 -1.5551 -1.5790
C -1.5921 -1.5530 -1.5799
C -1.5895 -1.5576 -1.5804
C -1.5849 -1.5551 -1.5806
C -1.5902 -1.5568 -1.5798
C -1.5910 -1.5649 -1.5807
C -1.5924 -1.5676 -1.5815
C -1.5921 -1.5667 -1.5795
138
REAL frame=59
C -1.6026 -1.5699 -1.5782
C -1.6004 -1.5658 -1.5768
C -1.6004 -1.5712 -1.5818
C -1.6051 -1.5702 -1.5753
C -1.6038 -1.5738 -1.5789
C -1.6023 -1.5759 -1.5808
C -1.6061 -1.5752 -1.5769
C -1.6051 -1.5740 -1.5793
C -1.6094 -1.5771 -1.5778
C -1.6012 -1.5707 -1.5808
C -1.5979 -1.5684 -1.5830
C -1.6017 -1.5689 -1.5820
C -1.6040 -1.5668 -1.5789
C -1.5976 -1.5642 -1.5843
C -1.5948 -1.5581 -1.5826
C -1.5955 -1.5684 -1.5852
C -1.6010 -1.5616 -1.5882
C -1.6023 -1.5688 -1.5919
C -1.5997 -1.5759 -1.5923
C -1.6067 -1.5668 -1.5959
C -1.6061 -1.5734 -1.5989
C -1.6094 -1.5573 -1.5955
C -1.6117 -1.5554 -1.5994
C -1.6024 -1.5537 -1.5934
C -1.6091 -1.5498 -1.5916
C -1.6129 -1.5423 -1.5908
C -1.6044 -1.5517 -1.5882
C -1.6051 -1.5460 -1.5849
C -1.6053 -1.5751 -1.5840
C -1.6072 -1.5805 -1.5842
C -1.6043 -1.5730 -1.5868
C -1.6038 -1.5681 -1.5854
C -1.6047 -1.5771 -1.5909
C -1.6024 -1.5794 -1.5935
C -1.6085 -1.5821 -1.5925
C -1.6065 -1.5837 -1.5918
C -1.6098 -1.5866 -1.5954
C -1.6129 -1.5789 -1.5899
C -1.6103 -1.5736 -1.5898
C -1.6199 -1.5812 -1.5877
C -1.6050 -1.5748 -1.5887
C -1.6064 -1.5737 -1.5857
C -1.6040 -1.5742 -1.5887
C -1.6027 -1.5775 -1.5920
C -1.6056 -1.5774 -1.5944
C -1.6006 -1.5788 -1.5912
C -1.6017 -1.5775 -1.5927
C -1.6046 -1.5790 -1.5951
C -1.5966 -1.5772 -1.5940
C -1.6020 -1.5730 -1.5889
C -1.6018 -1.5724 -1.5887
C -1.5978 -1.5715 -1.5874
C -1.6063 -1.5713 -1.5873
C -1.6050 -1.5673 -1.5854
C -1.6132 -1.5722 -1.5868
C -1.6161 -1.5701 -1.5868
C -1.6154 -1.5744 -1.5861
C -1.6107 -1.5732 -1.5831
C -1.6230 -1.5771 -1.5876
C -1.6251 -1.5749 -1.5865
C -1.6230 -1.5850 -1.5914
C -1.6222 -1.5872 -1.5921
C -1.6292 -1.5878 -1.5921
C -1.6163 -1.5889 -1.5943
C -1.6092 -1.5877 -1.5945
C -1.6176 -1.5966 -1.5978
C -1.6182 -1.5845 -1.5942
C -1.6139 -1.5818 -1.5955
C -1.6239 -1.5832 -1.5908
C -1.6281 -1.5740 -1.5854
C -1.6330 -1.5711 -1.5839
C -1.6272 -1.5746 -1.5853
C -1.6243 -1.5768 -1.5873
C -1.6304 -1.5727 -1.5840
C -1.6320 -1.5692 -1.5823
C -1.6340 -1.5777 -1.5844
C -1.6374 -1.5741 -1.5831
C -1.6388 -1.5807 -1.5862
C -1.6342 -1.5748 -1.5889
C -1.6436 -1.5822 -1.5788
C -1.6397 -1.5898 -1.5928
C -1.6293 -1.5830 -1.5849
C -1.6258 -1.5877 -1.5858
C -1.6264 -1.5688 -1.5833
C -1.6273 -1.5709 -1.5847
C -1.6216 -1.5631 -1.5816
C -1.6196 -1.5599 -1.5800
C -1.6184 -1.5618 -1.5836
C -1.6180 -1.5649 -1.5853
C -1.6169 -1.5590 -1.5839
C -1.6177 -1.5603 -1.5820
C -1.6204 -1.5540 -1.5788
C -1.6149 -1.5656 -1.5828
C -1.6128 -1.5706 -1.5852
C -1.6139 -1.5647 -1.5812
C -1.6167 -1.5617 -1.5799
C -1.6145 -1.5704 -1.5813
C -1.6106 -1.5735 -1.5720
C -1.6214 -1.5581 -1.5841
C -1.6217 -1.5523 -1.5919
C -1.6218 -1.5554 -1.5771
C -1.6256 -1.5573 -1.5853
C -1.6150 -1.5810 -1.5898
C -1.6097 -1.5868 -1.5899
C -1.6083 -1.5619 -1.5797
C -1.6047 -1.5636 -1.5821
C -1.6080 -1.5578 -1.5757
C -1.6082 -1.5547 -1.5744
C -1.6028 -1.5540 -1.5754
C -1.6012 -1.5518 -1.5759
C -1.6036 -1.5478 -1.5727
C -1.6059 -1.5500 -1.5702
C -1.6001 -1.5430 -1.5743
C -1.6066 -1.5443 -1.5700
C -1.6126 -1.5445 -1.5746
C -1.6167 -1.5467 -1.5804
C -1.6152 -1.5408 -1.5693
C -1.6218 -1.5406 -1.5695
C -1.6096 -1.5369 -1.5623
C -1.6084 -1.5329 -1.5551
C -1.6138 -1.5317 -1.5545
C -1.6004 -1.5299 -1.5480
C -1.6001 -1.5260 -1.5426
C -1.5939 -1.5315 -1.5476
C -1.5876 -1.5300 -1.5426
C -1.5954 -1.5357 -1.5555
C -1.5917 -1.5373 -1.5558
C -1.6034 -1.5389 -1.5623
C -1.5985 -1.5572 -1.5769
C -1.6000 -1.5608 -1.5776
C -1.5934 -1.5552 -1.5789
C -1.5926 -1.5527 -1.5803
C -1.5894 -1.5575 -1.5805
C -1.5849 -1.5555 -1.5809
C -1.5900 -1.5566 -1.5797
C -1.5910 -1.5648 -1.5807
C -1.5923 -1.5677 -1.5813
C -1.5921 -1.5668 -1.5796
138
REAL frame=60
C -1.6028 -1.5701 -1.5783
C -1.5999 -1.5656 -1.5769
C -1.6006 -1.5708 -1.5815
C -1.6049 -1.5701 -1.5752
C -1.6038 -1.5736 -1.5787
C -1.6023 -1.5754 -1.5810
C -1.6060 -1.5752 -1.5768
C -1.6050 -1.5739 -1.5792
C -1.6093 -1.5771 -1.5778
C -1.6012 -1.5708 -1.5808
C -1.5982 -1.5688 -1.5824
C -1.6016 -1.5689 -1.5819
C -1.6045 -1.5666 -1.5790
C -1.5976 -1.5643 -1.5842
C -1.5945 -1.5578 -1.5830
C -1.5957 -1.5682 -1.5856
C -1.6008 -1.5617 -1.5882
C -1.6022 -1.5689 -1.5919
C -1.5996 -1.5759 -1.5925
C -1.6067 -1.5668 -1.5959
C -1.6067 -1.5732 -1.5989
C -1.6095 -1.5572 -1.5955
C -1.6118 -1.5553 -1.5993
C -1.6022 -1.5539 -1.5938
C -1.6092 -1.5497 -1.5919
C -1.6123 -1.5423 -1.5910
C -1.6044 -1.5516 -1.5881
C -1.6051 -1.5458 -1.5848
C -1.6054 -1.5752 -1.5840
C -1.6072 -1.5804 -1.5842
C -1.6042 -1.5731 -1.5869
C -1.6045 -1.5682 -1.5852
C -1.6047 -1.5771 -1.5911
C -1.6026 -1.5792 -1.5937
C -1.6084 -1.5821 -1.5924
C -1.6068 -1.5837 -1.5914
C -1.6100 -1.5865 -1.5956
C -1.6128 -1.5787 -1.5899
C -1.6102 -1.5737 -1.5897
C -1.6199 -1.5810 -1.5878
C -1.6051 -1.5748 -1.5887
C -1.6065 -1.5735 -1.5858
C -1.6041 -1.5742 -1.5887
C -1.6027 -1.5775 -1.5919
C -1.6056 -1.5776 -1.5944
C -1.6004 -1.5786 -1.5908
C -1.6016 -1.5774 -1.5927
C -1.6046 -1.5788 -1.5951
C -1.5967 -1.5776 -1.5938
C -1.6021 -1.5729 -1.5889
C -1.6019 -1.5723 -1.5886
C -1.5979 -1.5714 -1.5872
C -1.6063 -1.5712 -1.5871
C -1.6050 -1.5672 -1.5855
C -1.6132 -1.5720 -1.5870
C -1.6161 -1.5701 -1.5867
C -1.6155 -1.5745 -1.5861
C -1.6108 -1.5734 -1.5831
C -1.6230 -1.5770 -1.5875
C -1.6254 -1.5749 -1.5867
C -1.6231 -1.5850 -1.5914
C -1.6221 -1.5874 -1.5923
C -1.6291 -1.5876 -1.5922
C -1.6164 -1.5890 -1.5944
C -1.6091 -1.5878 -1.5945
C -1.6176 -1.5965 -1.5981
C -1.6184 -1.5843 -1.5940
C -1.6139 -1.5818 -1.5954
C -1.6240 -1.5833 -1.5909
C -1.6280 -1.5741 -1.5854
C -1.6330 -1.5709 -1.5839
C -1.6273 -1.5746 -1.5852
C -1.6248 -1.5769 -1.5871
C -1.6305 -1.5728 -1.5840
C -1.6323 -1.5693 -1.5822
C -1.6340 -1.5775 -1.5845
C -1.6372 -1.5746 -1.5830
C -1.6388 -1.5807 -1.5862
C -1.6343 -1.5748 -1.5894
C -1.6435 -1.5824 -1.5785
C -1.6397 -1.5904 -1.5925
C -1.6292 -1.5830 -1.5849
C -1.6260 -1.5876 -1.5859
C -1.6263 -1.5687 -1.5834
C -1.6273 -1.5712 -1.5847
C -1.6216 -1.5630 -1.5816
C -1.6196 -1.5594 -1.5796
C -1.6185 -1.5617 -1.5838
C -1.6181 -1.5650 -1.5854
C -1.6168 -1.5592 -1.5834
C -1.6177 -1.5603 -1.5819
C -1.6204 -1.5540 -1.5789
C -1.6150 -1.5655 -1.5829
C -1.6131 -1.5703 -1.5853
C -1.6140 -1.5647 -1.5811
C -1.6163 -1.5618 -1.5797
C -1.6145 -1.5703 -1.5814
C -1.6106 -1.5734 -1.5721
C -1.6214 -1.5581 -1.5841
C -1.6213 -1.5521 -1.5917
C -1.6216 -1.5556 -1.5771
C -1.6254 -1.5576 -1.5850
C -1.6150 -1.5809 -1.5900
C -1.6097 -1.5869 -1.5900
C -1.6082 -1.5617 -1.5797
C -1.6047 -1.5637 -1.5821
C -1.6080 -1.5578 -1.5758
C -1.6084 -1.5552 -1.5740
C -1.6028 -1.5540 -1.5755
C -1.6011 -1.5516 -1.5757
C -1.6036 -1.5479 -1.5725
C -1.6064 -1.5495 -1.5701
C -1.6001 -1.5430 -1.5751
C -1.6067 -1.5443 -1.5700
C -1.6127 -1.5446 -1.5747
C -1.6168 -1.5471 -1.5804
C -1.6151 -1.5408 -1.5693
C -1.6214 -1.5407 -1.5701
C -1.6096 -1.5369 -1.5621
C -1.6084 -1.5329 -1.5551
C -1.6139 -1.5318 -1.5544
C -1.6006 -1.5298 -1.5480
C -1.5999 -1.5258 -1.5427
C -1.5938 -1.5317 -1.5477
C -1.5875 -1.5297 -1.5425
C -1.5954 -1.5358 -1.5554
C -1.5916 -1.5373 -1.5558
C -1.6034 -1.5388 -1.5623
C -1.5985 -1.5572 -1.5769
C -1.6001 -1.5608 -1.5775
C -1.5933 -1.5553 -1.5789
C -1.5931 -1.5524 -1.5806
C -1.5894 -1.5574 -1.5806
C -1.5850 -1.5559 -1.5812
C -1.5895 -1.5564 -1.5796
C -1.5910 -1.5647 -1.5806
C -1.5923 -1.5677 -1.5811
C -1.5922 -1.5669 -1.5797
138
REAL frame=61
C -1.6039 -1.5712 -1.5794
C -1.6007 -1.5665 -1.5783
C -1.6018 -1.5716 -1.5824
C -1.6057 -1.5713 -1.5762
C -1.6048 -1.5745 -1.5797
C -1.6033 -1.5761 -1.5823
C -1.6070 -1.5762 -1.5778
C -1.6059 -1.5749 -1.5801
C -1.6103 -1.5782 -1.5789
C -1.6023 -1.5719 -1.5819
C -1.5996 -1.5703 -1.5827
C -1.6027 -1.5700 -1.5828
C -1.6059 -1.5674 -1.5804
C -1.5986 -1.5654 -1.5853
C -1.5953 -1.5587 -1.5843
C -1.5968 -1.5691 -1.5869
C -1.6017 -1.5629 -1.5892
C -1.6032 -1.5701 -1.5930
C -1.6006 -1.5772 -1.5934
C -1.6077 -1.5679 -1.5970
C -1.6083 -1.5738 -1.5999
C -1.6107 -1.5583 -1.5967
C -1.6129 -1.5564 -1.6003
C -1.6032 -1.5553 -1.5951
C -1.6103 -1.5507 -1.5931
C -1.6128 -1.5433 -1.5925
C -1.6056 -1.5528 -1.5890
C -1.6061 -1.5466 -1.5858
C -1.6064 -1.5764 -1.5850
C -1.6082 -1.5815 -1.5853
C -1.6053 -1.5742 -1.5880
C -1.6061 -1.5695 -1.5861
C -1.6057 -1.5782 -1.5923
C -1.6036 -1.5799 -1.5953
C -1.6094 -1.5831 -1.5933
C -1.6080 -1.5849 -1.5923
C -1.6113 -1.5875 -1.5969
C -1.6138 -1.5795 -1.5909
C -1.6113 -1.5748 -1.5908
C -1.6209 -1.5819 -1.5890
C -1.6062 -1.5759 -1.5897
C -1.6076 -1.5745 -1.5869
C -1.6053 -1.5755 -1.5899
C -1.6038 -1.5785 -1.5929
C -1.6066 -1.5791 -1.5951
C -1.6013 -1.5794 -1.5918
C -1.6026 -1.5783 -1.5937
C -1.6057 -1.5798 -1.5960
C -1.5979 -1.5793 -1.5946
C -1.6033 -1.5739 -1.5899
C -1.6033 -1.5733 -1.5896
C -1.5991 -1.5725 -1.5880
C -1.6074 -1.5723 -1.5881
C -1.6061 -1.5681 -1.5865
C -1.6143 -1.5730 -1.5882
C -1.6172 -1.5713 -1.5877
C -1.6166 -1.5757 -1.5872
C -1.6120 -1.5748 -1.5844
C -1.6240 -1.5780 -1.5886
C -1.6267 -1.5761 -1.5880
C -1.6242 -1.5862 -1.5925
C -1.6229 -1.5887 -1.5935
C -1.6300 -1.5882 -1.5934
C -1.6175 -1.5903 -1.5955
C -1.6101 -1.5890 -1.5954
C -1.6187 -1.5977 -1.5993
C -1.6196 -1.5854 -1.5948
C -1.6149 -1.5830 -1.5965
C -1.6251 -1.5844 -1.5921
C -1.6290 -1.5752 -1.5865
C -1.6340 -1.5719 -1.5851
C -1.6284 -1.5757 -1.5864
C -1.6263 -1.5781 -1.5879
C -1.6316 -1.5741 -1.5851
C -1.6339 -1.5704 -1.5833
C -1.6351 -1.5784 -1.5857
C -1.6379 -1.5762 -1.5841
C -1.6397 -1.5820 -1.5873
C -1.6355 -1.5760 -1.5912
C -1.6443 -1.5835 -1.5793
C -1.6410 -1.5918 -1.5935
C -1.6301 -1.5842 -1.5861
C -1.6273 -1.5883 -1.5873
C -1.6273 -1.5697 -1.5846
C -1.6284 -1.5726 -1.5858
C -1.6226 -1.5640 -1.5828
C -1.6209 -1.5601 -1.5805
C -1.6195 -1.5627 -1.5851
C -1.6191 -1.5661 -1.5866
C -1.6179 -1.5604 -1.5844
C -1.6187 -1.5614 -1.5830
C -1.6214 -1.5552 -1.5800
C -1.6161 -1.5666 -1.5841
C -1.6144 -1.5712 -1.5865
C -1.6150 -1.5659 -1.5821
C -1.6168 -1.5630 -1.5806
C -1.6156 -1.5713 -1.5826
C -1.6117 -1.5744 -1.5735
C -1.6223 -1.5592 -1.5853
C -1.6219 -1.5530 -1.5928
C -1.6226 -1.5570 -1.5783
C -1.6262 -1.5588 -1.5858
C -1.6159 -1.5819 -1.5914
C -1.6109 -1.5881 -1.5915
C -1.6092 -1.5626 -1.5809
C -1.6057 -1.5648 -1.5832
C -1.6090 -1.5589 -1.5771
C -1.6101 -1.5568 -1.5749
C -1.6039 -1.5551 -1.5768
C -1.6020 -1.5527 -1.5768
C -1.6046 -1.5491 -1.5734
C -1.6076 -1.5503 -1.5710
C -1.6012 -1.5442 -1.5767
C -1.6079 -1.5454 -1.5713
C -1.6139 -1.5458 -1.5758
C -1.6179 -1.5487 -1.5816
C -1.6161 -1.5419 -1.5705
C -1.6220 -1.5420 -1.5721
C -1.6107 -1.5381 -1.5631
C -1.6094 -1.5341 -1.5563
C -1.6150 -1.5330 -1.5556
C -1.6019 -1.5310 -1.5491
C -1.6007 -1.5268 -1.5439
C -1.5949 -1.5329 -1.5491
C -1.5885 -1.5304 -1.5437
C -1.5964 -1.5371 -1.5565
C -1.5924 -1.5385 -1.5569
C -1.6045 -1.5399 -1.5635
C -1.5996 -1.5581 -1.5781
C -1.6012 -1.5619 -1.5785
C -1.5943 -1.5565 -1.5799
C -1.5947 -1.5532 -1.5819
C -1.5904 -1.5584 -1.5817
C -1.5862 -1.5573 -1.5827
C -1.5901 -1.5574 -1.5806
C -1.5921 -1.5657 -1.5816
C -1.5933 -1.5688 -1.5822
C -1.5933 -1.5680 -1.5809
138
REAL frame=62
C -1.6040 -1.5713 -1.5793
C -1.6008 -1.5664 -1.5787
C -1.6018 -1.5717 -1.5823
C -1.6056 -1.5714 -1.5762
C -1.6048 -1.5743 -1.5796
C -1.6030 -1.5757 -1.5823
C -1.6070 -1.5760 -1.5778
C -1.6057 -1.5749 -1.5800
C -1.6102 -1.5781 -1.5789
C -1.6023 -1.5719 -1.5819
C -1.5997 -1.5705 -1.5821
C -1.6028 -1.5701 -1.5827
C -1.6059 -1.5671 -1.5806
C -1.5986 -1.5654 -1.5853
C -1.5952 -1.5588 -1.5845
C -1.5967 -1.5690 -1.5871
C -1.6016 -1.5630 -1.5891
C -1.6031 -1.5702 -1.5930
C -1.6005 -1.5774 -1.5932
C -1.6076 -1.5679 -1.5970
C -1.6088 -1.5732 -1.5997
C -1.6108 -1.5583 -1.5968
C -1.6130 -1.5563 -1.6003
C -1.6031 -1.5555 -1.5952
C -1.6103 -1.5505 -1.5932
C -1.6123 -1.5431 -1.5931
C -1.6057 -1.5528 -1.5889
C -1.6059 -1.5463 -1.5858
C -1.6064 -1.5763 -1.5850
C -1.6081 -1.5816 -1.5853
C -1.6053 -1.5743 -1.5881
C -1.6064 -1.5697 -1.5859
C -1.6056 -1.5783 -1.5924
C -1.6033 -1.5792 -1.5960
C -1.6094 -1.5831 -1.5931
C -1.6079 -1.5850 -1.5923
C -1.6116 -1.5873 -1.5969
C -1.6137 -1.5793 -1.5908
C -1.6113 -1.5748 -1.5909
C -1.6208 -1.5817 -1.5891
C -1.6063 -1.5759 -1.5897
C -1.6076 -1.5743 -1.5869
C -1.6055 -1.5756 -1.5901
C -1.6038 -1.5783 -1.5928
C -1.6065 -1.5796 -1.5946
C -1.6011 -1.5791 -1.5921
C -1.6025 -1.5782 -1.5937
C -1.6057 -1.5798 -1.5958
C -1.5982 -1.5799 -1.5943
C -1.6034 -1.5738 -1.5898
C -1.6038 -1.5732 -1.5897
C -1.5992 -1.5726 -1.5879
C -1.6074 -1.5722 -1.5880
C -1.6062 -1.5678 -1.5864
C -1.6143 -1.5729 -1.5883
C -1.6172 -1.5712 -1.5877
C -1.6166 -1.5757 -1.5871
C -1.6122 -1.5753 -1.5846
C -1.6241 -1.5779 -1.5885
C -1.6269 -1.5761 -1.5882
C -1.6243 -1.5863 -1.5926
C -1.6227 -1.5887 -1.5934
C -1.6297 -1.5877 -1.5935
C -1.6176 -1.5904 -1.5956
C -1.6102 -1.5891 -1.5952
C -1.6188 -1.5979 -1.5992
C -1.6197 -1.5856 -1.5947
C -1.6150 -1.5831 -1.5964
C -1.6252 -1.5843 -1.5922
C -1.6289 -1.5752 -1.5864
C -1.6340 -1.5718 -1.5852
C -1.6285 -1.5756 -1.5865
C -1.6267 -1.5782 -1.5876
C -1.6316 -1.5741 -1.5850
C -1.6347 -1.5702 -1.5833
C -1.6351 -1.5782 -1.5858
C -1.6374 -1.5763 -1.5841
C -1.6396 -1.5822 -1.5872
C -1.6359 -1.5762 -1.5918
C -1.6441 -1.5834 -1.5789
C -1.6415 -1.5917 -1.5935
C -1.6300 -1.5842 -1.5861
C -1.6274 -1.5878 -1.5875
C -1.6273 -1.5697 -1.5846
C -1.6285 -1.5729 -1.5858
C -1.6225 -1.5638 -1.5830
C -1.6212 -1.5596 -1.5803
C -1.6196 -1.5627 -1.5853
C -1.6190 -1.5661 -1.5867
C -1.6180 -1.5602 -1.5847
C -1.6187 -1.5614 -1.5830
C -1.6213 -1.5553 -1.5800
C -1.6161 -1.5665 -1.5842
C -1.6148 -1.5710 -1.5864
C -1.6149 -1.5659 -1.5821
C -1.6164 -1.5632 -1.5804
C -1.6157 -1.5711 -1.5826
C -1.6120 -1.5745 -1.5738
C -1.6222 -1.5592 -1.5853
C -1.6216 -1.5530 -1.5928
C -1.6225 -1.5574 -1.5782
C -1.6260 -1.5588 -1.5855
C -1.6158 -1.5818 -1.5915
C -1.6114 -1.5883 -1.5922
C -1.6092 -1.5624 -1.5809
C -1.6058 -1.5648 -1.5832
C -1.6090 -1.5588 -1.5772
C -1.6110 -1.5573 -1.5749
C -1.6038 -1.5551 -1.5768
C -1.6019 -1.5529 -1.5770
C -1.6046 -1.5491 -1.5732
C -1.6075 -1.5504 -1.5707
C -1.6012 -1.5443 -1.5767
C -1.6080 -1.5453 -1.5714
C -1.6140 -1.5459 -1.5757
C -1.6179 -1.5492 -1.5815
C -1.6161 -1.5419 -1.5706
C -1.6215 -1.5421 -1.5729
C -1.6107 -1.5383 -1.5629
C -1.6094 -1.5340 -1.5562
C -1.6149 -1.5329 -1.5558
C -1.6021 -1.5310 -1.5491
C -1.6005 -1.5268 -1.5439
C -1.5949 -1.5330 -1.5492
C -1.5885 -1.5301 -1.5437
C -1.5964 -1.5372 -1.5564
C -1.5920 -1.5385 -1.5567
C -1.6045 -1.5400 -1.5635
C -1.5996 -1.5580 -1.5782
C -1.6014 -1.5619 -1.5783
C -1.5943 -1.5565 -1.5799
C -1.5950 -1.5531 -1.5820
C -1.5903 -1.5585 -1.5817
C -1.5862 -1.5574 -1.5830
C -1.5896 -1.5573 -1.5804
C -1.5921 -1.5657 -1.5814
C -1.5933 -1.5688 -1.5821
C -1.5933 -1.5680 -1.5810
138
REAL frame=63
C -1.6039 -1.5713 -1.5792
C -1.6013 -1.5664 -1.5790
C -1.6017 -1.5720 -1.5822
C -1.6055 -1.5716 -1.5764
C -1.6049 -1.5743 -1.5796
C -1.6028 -1.5755 -1.5821
C -1.6072 -1.5758 -1.5780
C -1.6056 -1.5749 -1.5798
C -1.6102 -1.5781 -1.5789
C -1.6023 -1.5720 -1.5818
C -1.5996 -1.5704 -1.5818
C -1.6030 -1.5702 -1.5826
C -1.6057 -1.5669 -1.5808
C -1.5985 -1.5654 -1.5854
C -1.5952 -1.5591 -1.5844
C -1.5965 -1.5690 -1.5872
C -1.6015 -1.5631 -1.5891
C -1.6030 -1.5703 -1.5931
C -1.6004 -1.5776 -1.5929
C -1.6076 -1.5679 -1.5969
C -1.6092 -1.5726 -1.5995
C -1.6109 -1.5583 -1.5969
C -1.6131 -1.5563 -1.6003
C -1.6030 -1.5558 -1.5953
C -1.6102 -1.5505 -1.5932
C -1.6119 -1.5429 -1.5937
C -1.6058 -1.5529 -1.5889
C -1.6056 -1.5461 -1.5858
C -1.6063 -1.5763 -1.5849
C -1.6081 -1.5816 -1.5854
C -1.6054 -1.5743 -1.5881
C -1.6065 -1.5701 -1.5858
C -1.6056 -1.5784 -1.5924
C -1.6028 -1.5784 -1.5966
C -1.6094 -1.5830 -1.5929
C -1.6077 -1.5851 -1.5924
C -1.6118 -1.5872 -1.5967
C -1.6136 -1.5790 -1.5906
C -1.6113 -1.5749 -1.5910
C -1.6207 -1.5815 -1.5892
C -1.6064 -1.5759 -1.5897
C -1.6076 -1.5741 -1.5870
C -1.6057 -1.5758 -1.5904
C -1.6039 -1.5782 -1.5927
C -1.6063 -1.5801 -1.5939
C -1.6009 -1.5787 -1.5926
C -1.6025 -1.5781 -1.5936
C -1.6057 -1.5799 -1.5955
C -1.5984 -1.5804 -1.5940
C -1.6034 -1.5736 -1.5897
C -1.6044 -1.5732 -1.5897
C -1.5994 -1.5726 -1.5880
C -1.6074 -1.5722 -1.5880
C -1.6064 -1.5675 -1.5861
C -1.6144 -1.5729 -1.5883
C -1.6172 -1.5711 -1.5877
C -1.6166 -1.5758 -1.5871
C -1.6125 -1.5758 -1.5850
C -1.6242 -1.5778 -1.5884
C -1.6268 -1.5762 -1.5883
C -1.6243 -1.5864 -1.5927
C -1.6225 -1.5887 -1.5932
C -1.6294 -1.5874 -1.5937
C -1.6177 -1.5905 -1.5956
C -1.6103 -1.5892 -1.5951
C -1.6189 -1.5983 -1.5990
C -1.6197 -1.5859 -1.5945
C -1.6150 -1.5831 -1.5963
C -1.6254 -1.5841 -1.5922
C -1.6290 -1.5750 -1.5864
C -1.6340 -1.5718 -1.5852
C -1.6286 -1.5757 -1.5865
C -1.6270 -1.5782 -1.5875
C -1.6317 -1.5740 -1.5848
C -1.6355 -1.5700 -1.5833
C -1.6351 -1.5781 -1.5858
C -1.6370 -1.5761 -1.5842
C -1.6394 -1.5824 -1.5872
C -1.6362 -1.5764 -1.5923
C -1.6438 -1.5832 -1.5784
C -1.6421 -1.5915 -1.5936
C -1.6300 -1.5843 -1.5861
C -1.6276 -1.5872 -1.5877
C -1.6274 -1.5698 -1.5845
C -1.6286 -1.5731 -1.5858
C -1.6223 -1.5636 -1.5831
C -1.6214 -1.5592 -1.5803
C -1.6196 -1.5627 -1.5853
C -1.6189 -1.5660 -1.5868
C -1.6181 -1.5599 -1.5853
C -1.6188 -1.5614 -1.5830
C -1.6212 -1.5553 -1.5800
C -1.6161 -1.5665 -1.5843
C -1.6152 -1.5710 -1.5862
C -1.6148 -1.5659 -1.5820
C -1.6162 -1.5634 -1.5802
C -1.6159 -1.5709 -1.5827
C -1.6123 -1.5745 -1.5743
C -1.6221 -1.5592 -1.5853
C -1.6215 -1.5530 -1.5929
C -1.6224 -1.5577 -1.5781
C -1.6260 -1.5587 -1.5852
C -1.6157 -1.5818 -1.5917
C -1.6119 -1.5884 -1.5930
C -1.6093 -1.5622 -1.5811
C -1.6058 -1.5648 -1.5832
C -1.6089 -1.5588 -1.5774
C -1.6120 -1.5580 -1.5749
C -1.6038 -1.5550 -1.5768
C -1.6019 -1.5533 -1.5773
C -1.6047 -1.5491 -1.5731
C -1.6071 -1.5508 -1.5705
C -1.6013 -1.5445 -1.5762
C -1.6080 -1.5451 -1.5715
C -1.6141 -1.5460 -1.5756
C -1.6178 -1.5495 -1.5814
C -1.6161 -1.5419 -1.5707
C -1.6209 -1.5422 -1.5735
C -1.6106 -1.5384 -1.5629
C -1.6095 -1.5340 -1.5561
C -1.6148 -1.5328 -1.5560
C -1.6022 -1.5311 -1.5490
C -1.6004 -1.5270 -1.5438
C -1.5949 -1.5329 -1.5494
C -1.5886 -1.5298 -1.5438
C -1.5965 -1.5373 -1.5564
C -1.5915 -1.5385 -1.5565
C -1.6045 -1.5400 -1.5635
C -1.5996 -1.5580 -1.5782
C -1.6015 -1.5619 -1.5782
C -1.5943 -1.5565 -1.5799
C -1.5950 -1.5531 -1.5822
C -1.5902 -1.5585 -1.5817
C -1.5862 -1.5572 -1.5834
C -1.5891 -1.5573 -1.5803
C -1.5922 -1.5657 -1.5813
C -1.5934 -1.5687 -1.5822
C -1.5933 -1.5681 -1.5811
138
REAL frame=64
C -1.6038 -1.5713 -1.5790
C -1.6020 -1.5666 -1.5791
C -1.6016 -1.5724 -1.5822
C -1.6055 -1.5718 -1.5765
C -1.6049 -1.5743 -1.5796
C -1.6025 -1.5754 -1.5818
C -1.6073 -1.5755 -1.5782
C -1.6055 -1.5748 -1.5797
C -1.6102 -1.5780 -1.5789
C -1.6023 -1.5721 -1.5818
C -1.5992 -1.5700 -1.5817
C -1.6033 -1.5703 -1.5826
C -1.6054 -1.5668 -1.5809
C -1.5985 -1.5654 -1.5854
C -1.5954 -1.5595 -1.5842
C -1.5962 -1.5691 -1.5870
C -1.6014 -1.5631 -1.5891
C -1.6028 -1.5703 -1.5931
C -1.6005 -1.5777 -1.5926
C -1.6076 -1.5679 -1.5968
C -1.6095 -1.5722 -1.5994
C -1.6110 -1.5583 -1.5971
C -1.6132 -1.5563 -1.6004
C -1.6030 -1.5561 -1.5953
C -1.6101 -1.5504 -1.5932
C -1.6116 -1.5428 -1.5943
C -1.6059 -1.5530 -1.5888
C -1.6053 -1.5462 -1.5859
C -1.6061 -1.5761 -1.5849
C -1.6081 -1.5817 -1.5854
C -1.6055 -1.5744 -1.5882
C -1.6064 -1.5703 -1.5857
C -1.6056 -1.5785 -1.5925
C -1.6023 -1.5778 -1.5970
C -1.6094 -1.5830 -1.5928
C -1.6074 -1.5851 -1.5926
C -1.6119 -1.5871 -1.5962
C -1.6136 -1.5789 -1.5906
C -1.6113 -1.5749 -1.5912
C -1.6206 -1.5814 -1.5892
C -1.6065 -1.5759 -1.5897
C -1.6076 -1.5738 -1.5870
C -1.6059 -1.5758 -1.5906
C -1.6040 -1.5780 -1.5927
C -1.6060 -1.5805 -1.5934
C -1.6008 -1.5782 -1.5931
C -1.6024 -1.5781 -1.5936
C -1.6057 -1.5800 -1.5953
C -1.5985 -1.5806 -1.5938
C -1.6034 -1.5735 -1.5896
C -1.6049 -1.5733 -1.5897
C -1.5994 -1.5725 -1.5882
C -1.6074 -1.5721 -1.5880
C -1.6067 -1.5673 -1.5857
C -1.6144 -1.5730 -1.5882
C -1.6172 -1.5710 -1.5878
C -1.6165 -1.5759 -1.5872
C -1.6128 -1.5763 -1.5856
C -1.6243 -1.5778 -1.5883
C -1.6266 -1.5762 -1.5883
C -1.6243 -1.5865 -1.5928
C -1.6226 -1.5885 -1.5929
C -1.6292 -1.5872 -1.5939
C -1.6178 -1.5906 -1.5956
C -1.6104 -1.5893 -1.5951
C -1.6190 -1.5988 -1.5988
C -1.6197 -1.5862 -1.5945
C -1.6151 -1.5831 -1.5962
C -1.6255 -1.5839 -1.5923
C -1.6290 -1.5749 -1.5863
C -1.6339 -1.5718 -1.5852
C -1.6286 -1.5757 -1.5866
C -1.6271 -1.5782 -1.5877
C -1.6318 -1.5739 -1.5847
C -1.6363 -1.5698 -1.5832
C -1.6351 -1.5781 -1.5858
C -1.6368 -1.5756 -1.5843
C -1.6393 -1.5826 -1.5872
C -1.6365 -1.5766 -1.5925
C -1.6435 -1.5830 -1.5778
C -1.6428 -1.5913 -1.5937
C -1.6299 -1.5842 -1.5861
C -1.6277 -1.5867 -1.5878
C -1.6275 -1.5700 -1.5843
C -1.6286 -1.5732 -1.5858
C -1.6222 -1.5633 -1.5833
C -1.6214 -1.5589 -1.5804
C -1.6195 -1.5628 -1.5853
C -1.6187 -1.5658 -1.5869
C -1.6183 -1.5596 -1.5863
C -1.6188 -1.5614 -1.5830
C -1.6211 -1.5553 -1.5799
C -1.6161 -1.5666 -1.5843
C -1.6155 -1.5711 -1.5860
C -1.6146 -1.5658 -1.5820
C -1.6161 -1.5636 -1.5801
C -1.6160 -1.5708 -1.5828
C -1.6126 -1.5746 -1.5747
C -1.6220 -1.5592 -1.5852
C -1.6215 -1.5530 -1.5929
C -1.6222 -1.5580 -1.5781
C -1.6261 -1.5584 -1.5852
C -1.6156 -1.5817 -1.5918
C -1.6124 -1.5884 -1.5936
C -1.6094 -1.5621 -1.5812
C -1.6058 -1.5648 -1.5831
C -1.6088 -1.5587 -1.5775
C -1.6127 -1.5588 -1.5749
C -1.6038 -1.5550 -1.5768
C -1.6019 -1.5537 -1.5775
C -1.6048 -1.5490 -1.5731
C -1.6065 -1.5513 -1.5702
C -1.6013 -1.5447 -1.5752
C -1.6081 -1.5450 -1.5715
C -1.6143 -1.5460 -1.5755
C -1.6176 -1.5498 -1.5813
C -1.6160 -1.5420 -1.5709
C -1.6203 -1.5422 -1.5737
C -1.6106 -1.5386 -1.5629
C -1.6096 -1.5339 -1.5559
C -1.6145 -1.5326 -1.5561
C -1.6023 -1.5312 -1.5490
C -1.6003 -1.5273 -1.5437
C -1.5950 -1.5327 -1.5495
C -1.5886 -1.5298 -1.5439
C -1.5965 -1.5374 -1.5564
C -1.5910 -1.5384 -1.5563
C -1.6045 -1.5402 -1.5635
C -1.5996 -1.5580 -1.5783
C -1.6016 -1.5618 -1.5780
C -1.5944 -1.5564 -1.5799
C -1.5949 -1.5533 -1.5823
C -1.5901 -1.5586 -1.5816
C -1.5862 -1.5568 -1.5837
C -1.5887 -1.5575 -1.5802
C -1.5923 -1.5657 -1.5811
C -1.5934 -1.5686 -1.5822
C -1.5933 -1.5681 -1.5812
138
REAL frame=65
C -1.6037 -1.5712 -1.5789
C -1.6026 -1.5669 -1.5790
C -1.6014 -1.5728 -1.5822
C -1.6057 -1.5719 -1.5766
C -1.6049 -1.5744 -1.5797
C -1.6022 -1.5754 -1.5815
C -1.6075 -1.5753 -1.5786
C -1.6054 -1.5747 -1.5796
C -1.6101 -1.5779 -1.5789
C -1.6022 -1.5722 -1.5817
C -1.5986 -1.5694 -1.5819
C -1.6034 -1.5703 -1.5826
C -1.6050 -1.5670 -1.5807
C -1.5986 -1.5654 -1.5855
C -1.5958 -1.5600 -1.5839
C -1.5959 -1.5692 -1.5868
C -1.6014 -1.5631 -1.5892
C -1.6027 -1.5704 -1.5931
C -1.6005 -1.5778 -1.5924
C -1.6076 -1.5680 -1.5968
C -1.6096 -1.5722 -1.5992
C -1.6111 -1.5583 -1.5971
C -1.6133 -1.5562 -1.6004
C -1.6030 -1.5564 -1.5953
C -1.6101 -1.5505 -1.5931
C -1.6115 -1.5427 -1.5945
C -1.6060 -1.5530 -1.5889
C -1.6051 -1.5465 -1.5860
C -1.6060 -1.5760 -1.5850
C -1.6080 -1.5818 -1.5854
C -1.6055 -1.5744 -1.5882
C -1.6063 -1.5704 -1.5858
C -1.6056 -1.5785 -1.5925
C -1.6017 -1.5776 -1.5971
C -1.6094 -1.5829 -1.5926
C -1.6070 -1.5851 -1.5928
C -1.6119 -1.5870 -1.5956
C -1.6136 -1.5787 -1.5905
C -1.6114 -1.5749 -1.5913
C -1.6205 -1.5812 -1.5892
C -1.6066 -1.5759 -1.5897
C -1.6076 -1.5736 -1.5870
C -1.6061 -1.5758 -1.5907
C -1.6041 -1.5779 -1.5928
C -1.6058 -1.5808 -1.5930
C -1.6007 -1.5778 -1.5937
C -1.6024 -1.5781 -1.5934
C -1.6058 -1.5801 -1.5951
C -1.5985 -1.5806 -1.5937
C -1.6034 -1.5734 -1.5895
C -1.6053 -1.5733 -1.5896
C -1.5995 -1.5723 -1.5885
C -1.6075 -1.5721 -1.5880
C -1.6070 -1.5672 -1.5853
C -1.6144 -1.5731 -1.5881
C -1.6172 -1.5708 -1.5878
C -1.6165 -1.5759 -1.5872
C -1.6132 -1.5768 -1.5862
C -1.6244 -1.5778 -1.5883
C -1.6264 -1.5761 -1.5882
C -1.6243 -1.5865 -1.5929
C -1.6228 -1.5883 -1.5927
C -1.6292 -1.5872 -1.5941
C -1.6180 -1.5907 -1.5956
C -1.6106 -1.5895 -1.5951
C -1.6191 -1.5993 -1.5985
C -1.6196 -1.5864 -1.5945
C -1.6151 -1.5831 -1.5960
C -1.6257 -1.5837 -1.5923
C -1.6291 -1.5747 -1.5863
C -1.6339 -1.5718 -1.5853
C -1.6287 -1.5757 -1.5866
C -1.6272 -1.5781 -1.5881
C -1.6319 -1.5737 -1.5846
C -1.6367 -1.5696 -1.5831
C -1.6350 -1.5783 -1.5857
C -1.6368 -1.5748 -1.5844
C -1.6393 -1.5828 -1.5872
C -1.6365 -1.5768 -1.5926
C -1.6431 -1.5827 -1.5773
C -1.6434 -1.5912 -1.5936
C -1.6299 -1.5842 -1.5862
C -1.6278 -1.5864 -1.5879
C -1.6276 -1.5701 -1.5842
C -1.6286 -1.5733 -1.5858
C -1.6222 -1.5631 -1.5834
C -1.6212 -1.5587 -1.5806
C -1.6195 -1.5629 -1.5853
C -1.6186 -1.5657 -1.5871
C -1.6185 -1.5594 -1.5872
C -1.6189 -1.5613 -1.5831
C -1.6210 -1.5553 -1.5799
C -1.6161 -1.5666 -1.5842
C -1.6157 -1.5712 -1.5858
C -1.6144 -1.5658 -1.5821
C -1.6162 -1.5636 -1.5800
C -1.6160 -1.5707 -1.5829
C -1.6129 -1.5747 -1.5751
C -1.6219 -1.5592 -1.5851
C -1.6216 -1.5531 -1.5929
C -1.6220 -1.5582 -1.5781
C -1.6263 -1.5581 -1.5853
C -1.6155 -1.5817 -1.5920
C -1.6127 -1.5885 -1.5939
C -1.6094 -1.5621 -1.5814
C -1.6059 -1.5647 -1.5831
C -1.6088 -1.5586 -1.5776
C -1.6132 -1.5596 -1.5748
C -1.6037 -1.5549 -1.5767
C -1.6019 -1.5541 -1.5778
C -1.6049 -1.5490 -1.5731
C -1.6058 -1.5519 -1.5702
C -1.6015 -1.5447 -1.5742
C -1.6081 -1.5450 -1.5714
C -1.6144 -1.5460 -1.5754
C -1.6176 -1.5497 -1.5812
C -1.6160 -1.5421 -1.5710
C -1.6198 -1.5420 -1.5736
C -1.6106 -1.5387 -1.5629
C -1.6096 -1.5338 -1.5558
C -1.6143 -1.5325 -1.5562
C -1.6023 -1.5313 -1.5490
C -1.6004 -1.5276 -1.5435
C -1.5951 -1.5325 -1.5496
C -1.5886 -1.5300 -1.5442
C -1.5966 -1.5375 -1.5565
C -1.5906 -1.5383 -1.5562
C -1.6045 -1.5404 -1.5635
C -1.5998 -1.5580 -1.5784
C -1.6016 -1.5617 -1.5779
C -1.5944 -1.5562 -1.5799
C -1.5945 -1.5536 -1.5824
C -1.5900 -1.5587 -1.5814
C -1.5861 -1.5563 -1.5839
C -1.5883 -1.5578 -1.5802
C -1.5925 -1.5658 -1.5810
C -1.5935 -1.5686 -1.5822
C -1.5934 -1.5681 -1.5812
138
REAL frame=66
C -1.6036 -1.5712 -1.5788
C -1.6031 -1.5674 -1.5786
C -1.6012 -1.5731 -1.5821
C -1.6061 -1.5718 -1.5766
C -1.6049 -1.5745 -1.5797
C -1.6021 -1.5757 -1.5812
C -1.6076 -1.5751 -1.5790
C -1.6054 -1.5746 -1.5794
C -1.6101 -1.5777 -1.5789
C -1.6022 -1.5722 -1.5816
C -1.5981 -1.5687 -1.5822
C -1.6035 -1.5704 -1.5826
C -1.6047 -1.5674 -1.5804
C -1.5986 -1.5654 -1.5854
C -1.5962 -1.5603 -1.5835
C -1.5956 -1.5693 -1.5865
C -1.6014 -1.5631 -1.5893
C -1.6025 -1.5704 -1.5931
C -1.6006 -1.5777 -1.5924
C -1.6076 -1.5680 -1.5967
C -1.6097 -1.5725 -1.5992
C -1.6111 -1.5583 -1.5971
C -1.6134 -1.5561 -1.6005
C -1.6030 -1.5566 -1.5953
C -1.6100 -1.5506 -1.5931
C -1.6116 -1.5428 -1.5945
C -1.6061 -1.5529 -1.5889
C -1.6049 -1.5470 -1.5861
C -1.6060 -1.5760 -1.5851
C -1.6079 -1.5818 -1.5854
C -1.6056 -1.5745 -1.5883
C -1.6061 -1.5703 -1.5859
C -1.6056 -1.5785 -1.5925
C -1.6013 -1.5777 -1.5970
C -1.6094 -1.5829 -1.5925
C -1.6067 -1.5850 -1.5929
C -1.6118 -1.5869 -1.5949
C -1.6136 -1.5786 -1.5906
C -1.6114 -1.5749 -1.5915
C -1.6204 -1.5810 -1.5892
C -1.6066 -1.5759 -1.5897
C -1.6077 -1.5734 -1.5870
C -1.6062 -1.5758 -1.5907
C -1.6041 -1.5778 -1.5930
C -1.6058 -1.5809 -1.5930
C -1.6005 -1.5774 -1.5941
C -1.6025 -1.5781 -1.5932
C -1.6059 -1.5802 -1.5950
C -1.5984 -1.5803 -1.5937
C -1.6034 -1.5733 -1.5894
C -1.6056 -1.5732 -1.5895
C -1.5994 -1.5719 -1.5888
C -1.6076 -1.5721 -1.5881
C -1.6072 -1.5673 -1.5850
C -1.6144 -1.5732 -1.5879
C -1.6172 -1.5707 -1.5879
C -1.6165 -1.5760 -1.5872
C -1.6136 -1.5772 -1.5869
C -1.6244 -1.5779 -1.5884
C -1.6261 -1.5761 -1.5879
C -1.6242 -1.5866 -1.5930
C -1.6232 -1.5881 -1.5925
C -1.6293 -1.5875 -1.5944
C -1.6181 -1.5909 -1.5956
C -1.6107 -1.5896 -1.5951
C -1.6192 -1.5997 -1.5983
C -1.6196 -1.5865 -1.5945
C -1.6152 -1.5831 -1.5959
C -1.6258 -1.5836 -1.5924
C -1.6292 -1.5745 -1.5863
C -1.6338 -1.5718 -1.5852
C -1.6288 -1.5757 -1.5866
C -1.6270 -1.5779 -1.5885
C -1.6320 -1.5734 -1.5846
C -1.6367 -1.5694 -1.5830
C -1.6349 -1.5785 -1.5856
C -1.6370 -1.5740 -1.5846
C -1.6393 -1.5830 -1.5873
C -1.6362 -1.5769 -1.5924
C -1.6427 -1.5825 -1.5767
C -1.6438 -1.5914 -1.5935
C -1.6298 -1.5841 -1.5863
C -1.6279 -1.5863 -1.5879
C -1.6276 -1.5702 -1.5841
C -1.6287 -1.5734 -1.5858
C -1.6222 -1.5628 -1.5835
C -1.6208 -1.5587 -1.5809
C -1.6194 -1.5629 -1.5853
C -1.6185 -1.5656 -1.5871
C -1.6185 -1.5593 -1.5880
C -1.6190 -1.5613 -1.5831
C -1.6209 -1.5553 -1.5798
C -1.6161 -1.5667 -1.5841
C -1.6158 -1.5713 -1.5856
C -1.6143 -1.5657 -1.5822
C -1.6163 -1.5636 -1.5801
C -1.6160 -1.5706 -1.5831
C -1.6132 -1.5747 -1.5754
C -1.6219 -1.5591 -1.5850
C -1.6217 -1.5531 -1.5927
C -1.6217 -1.5583 -1.5780
C -1.6264 -1.5577 -1.5855
C -1.6154 -1.5816 -1.5922
C -1.6127 -1.5886 -1.5939
C -1.6095 -1.5622 -1.5816
C -1.6060 -1.5646 -1.5831
C -1.6089 -1.5586 -1.5778
C -1.6133 -1.5604 -1.5747
C -1.6037 -1.5549 -1.5767
C -1.6020 -1.5544 -1.5779
C -1.6049 -1.5489 -1.5731
C -1.6052 -1.5523 -1.5702
C -1.6017 -1.5446 -1.5732
C -1.6080 -1.5451 -1.5712
C -1.6146 -1.5460 -1.5754
C -1.6176 -1.5496 -1.5812
C -1.6159 -1.5422 -1.5711
C -1.6192 -1.5418 -1.5733
C -1.6106 -1.5387 -1.5630
C -1.6097 -1.5338 -1.5557
C -1.6139 -1.5323 -1.5561
C -1.6024 -1.5314 -1.5490
C -1.6005 -1.5280 -1.5432
C -1.5952 -1.5324 -1.5497
C -1.5886 -1.5301 -1.5444
C -1.5966 -1.5376 -1.5566
C -1.5903 -1.5382 -1.5562
C -1.6044 -1.5406 -1.5635
C -1.5999 -1.5580 -1.5784
C -1.6016 -1.5616 -1.5777
C -1.5944 -1.5561 -1.5799
C -1.5942 -1.5538 -1.5823
C -1.5899 -1.5588 -1.5812
C -1.5861 -1.5556 -1.5841
C -1.5880 -1.5582 -1.5802
C -1.5926 -1.5658 -1.5810
C -1.5935 -1.5685 -1.5822
C -1.5934 -1.5681 -1.5812
138
REAL frame=67
C -1.6035 -1.5711 -1.5787
C -1.6034 -1.5679 -1.5780
C -1.6011 -1.5730 -1.5819
C -1.6064 -1.5717 -1.5765
C -1.6049 -1.5746 -1.5797
C -1.6022 -1.5760 -1.5810
C -1.6076 -1.5751 -1.5793
C -1.6055 -1.5745 -1.5794
C -1.6100 -1.5776 -1.5789
C -1.6021 -1.5723 -1.5814
C -1.5977 -1.5682 -1.5822
C -1.6035 -1.5704 -1.5827
C -1.6046 -1.5678 -1.5800
C -1.5988 -1.5654 -1.5854
C -1.5966 -1.5605 -1.5832
C -1.5955 -1.5695 -1.5862
C -1.6014 -1.5630 -1.5894
C -1.6024 -1.5704 -1.5930
C -1.6007 -1.5776 -1.5926
C -1.6076 -1.5680 -1.5967
C -1.6096 -1.5731 -1.5992
C -1.6111 -1.5582 -1.5970
C -1.6136 -1.5561 -1.6006
C -1.6031 -1.5567 -1.5954
C -1.6099 -1.5507 -1.5932
C -1.6117 -1.5430 -1.5940
C -1.6061 -1.5529 -1.5890
C -1.6048 -1.5475 -1.5862
C -1.6059 -1.5760 -1.5853
C -1.6078 -1.5818 -1.5853
C -1.6056 -1.5745 -1.5883
C -1.6059 -1.5701 -1.5862
C -1.6056 -1.5785 -1.5924
C -1.6011 -1.5782 -1.5966
C -1.6093 -1.5828 -1.5925
C -1.6066 -1.5849 -1.5928
C -1.6117 -1.5869 -1.5942
C -1.6137 -1.5785 -1.5908
C -1.6114 -1.5749 -1.5916
C -1.6203 -1.5808 -1.5892
C -1.6067 -1.5758 -1.5897
C -1.6078 -1.5733 -1.5870
C -1.6063 -1.5756 -1.5906
C -1.6042 -1.5778 -1.5931
C -1.6059 -1.5809 -1.5934
C -1.6004 -1.5772 -1.5944
C -1.6026 -1.5782 -1.5930
C -1.6059 -1.5803 -1.5950
C -1.5982 -1.5797 -1.5938
C -1.6034 -1.5732 -1.5894
C -1.6058 -1.5731 -1.5893
C -1.5993 -1.5713 -1.5890
C -1.6077 -1.5721 -1.5881
C -1.6073 -1.5676 -1.5849
C -1.6144 -1.5732 -1.5878
C -1.6173 -1.5706 -1.5879
C -1.6166 -1.5760 -1.5872
C -1.6140 -1.5776 -1.5876
C -1.6244 -1.5780 -1.5885
C -1.6260 -1.5761 -1.5877
C -1.6241 -1.5865 -1.5930
C -1.6237 -1.5879 -1.5924
C -1.6295 -1.5878 -1.5947
C -1.6183 -1.5911 -1.5955
C -1.6108 -1.5897 -1.5952
C -1.6193 -1.5999 -1.5981
C -1.6197 -1.5863 -1.5944
C -1.6152 -1.5831 -1.5957
C -1.6259 -1.5837 -1.5925
C -1.6294 -1.5745 -1.5864
C -1.6337 -1.5718 -1.5852
C -1.6289 -1.5757 -1.5866
C -1.6268 -1.5777 -1.5889
C -1.6321 -1.5732 -1.5845
C -1.6365 -1.5692 -1.5828
C -1.6347 -1.5787 -1.5854
C -1.6373 -1.5734 -1.5847
C -1.6394 -1.5831 -1.5874
C -1.6357 -1.5771 -1.5920
C -1.6424 -1.5824 -1.5763
C -1.6441 -1.5919 -1.5934
C -1.6298 -1.5840 -1.5863
C -1.6280 -1.5864 -1.5880
C -1.6276 -1.5702 -1.5841
C -1.6287 -1.5735 -1.5858
C -1.6223 -1.5627 -1.5835
C -1.6205 -1.5589 -1.5812
C -1.6194 -1.5628 -1.5854
C -1.6186 -1.5658 -1.5871
C -1.6184 -1.5594 -1.5884
C -1.6190 -1.5612 -1.5831
C -1.6208 -1.5553 -1.5798
C -1.6161 -1.5667 -1.5840
C -1.6158 -1.5715 -1.5854
C -1.6142 -1.5657 -1.5823
C -1.6164 -1.5634 -1.5803
C -1.6159 -1.5706 -1.5833
C -1.6132 -1.5747 -1.5755
C -1.6218 -1.5591 -1.5849
C -1.6218 -1.5531 -1.5925
C -1.6215 -1.5582 -1.5780
C -1.6266 -1.5574 -1.5858
C -1.6154 -1.5815 -1.5923
C -1.6123 -1.5888 -1.5936
C -1.6094 -1.5623 -1.5817
C -1.6061 -1.5645 -1.5831
C -1.6089 -1.5585 -1.5780
C -1.6132 -1.5612 -1.5744
C -1.6037 -1.5550 -1.5766
C -1.6020 -1.5544 -1.5778
C -1.6050 -1.5488 -1.5731
C -1.6050 -1.5525 -1.5704
C -1.6018 -1.5444 -1.5726
C -1.6080 -1.5452 -1.5710
C -1.6147 -1.5460 -1.5754
C -1.6177 -1.5493 -1.5812
C -1.6159 -1.5422 -1.5711
C -1.6188 -1.5416 -1.5729
C -1.6106 -1.5387 -1.5632
C -1.6098 -1.5338 -1.5557
C -1.6136 -1.5322 -1.5558
C -1.6024 -1.5314 -1.5490
C -1.6007 -1.5283 -1.5429
C -1.5952 -1.5323 -1.5498
C -1.5886 -1.5302 -1.5447
C -1.5966 -1.5376 -1.5567
C -1.5902 -1.5382 -1.5564
C -1.6044 -1.5408 -1.5634
C -1.6000 -1.5581 -1.5784
C -1.6016 -1.5614 -1.5776
C -1.5945 -1.5561 -1.5800
C -1.5938 -1.5539 -1.5821
C -1.5898 -1.5589 -1.5810
C -1.5862 -1.5550 -1.5841
C -1.5877 -1.5586 -1.5802
C -1.5926 -1.5657 -1.5810
C -1.5936 -1.5684 -1.5822
C -1.5934 -1.5681 -1.5812
138
REAL frame=68
C -1.6035 -1.5711 -1.5787
C -1.6033 -1.5682 -1.5773
C -1.6011 -1.5727 -1.5814
C -1.6067 -1.5717 -1.5765
C -1.6049 -1.5747 -1.5797
C -1.6024 -1.5764 -1.5810
C -1.6075 -1.5753 -1.5795
C -1.6055 -1.5745 -1.5793
C -1.6099 -1.5774 -1.5789
C -1.6020 -1.5722 -1.5814
C -1.5976 -1.5681 -1.5821
C -1.6034 -1.5705 -1.5828
C -1.6048 -1.5683 -1.5798
C -1.5989 -1.5655 -1.5853
C -1.5969 -1.5603 -1.5829
C -1.5955 -1.5696 -1.5860
C -1.6015 -1.5629 -1.5894
C -1.6022 -1.5704 -1.5930
C -1.6006 -1.5775 -1.5928
C -1.6077 -1.5681 -1.5967
C -1.6094 -1.5739 -1.5992
C -1.6111 -1.5582 -1.5968
C -1.6137 -1.5560 -1.6007
C -1.6032 -1.5566 -1.5955
C -1.6098 -1.5509 -1.5932
C -1.6118 -1.5433 -1.5933
C -1.6061 -1.5529 -1.5892
C -1.6049 -1.5479 -1.5863
C -1.6060 -1.5760 -1.5855
C -1.6077 -1.5819 -1.5853
C -1.6057 -1.5745 -1.5882
C -1.6056 -1.5697 -1.5866
C -1.6056 -1.5784 -1.5923
C -1.6013 -1.5789 -1.5960
C -1.6093 -1.5828 -1.5925
C -1.6067 -1.5848 -1.5927
C -1.6115 -1.5868 -1.5936
C -1.6137 -1.5785 -1.5911
C -1.6114 -1.5748 -1.5916
C -1.6202 -1.5806 -1.5892
C -1.6067 -1.5756 -1.5898
C -1.6078 -1.5732 -1.5871
C -1.6064 -1.5755 -1.5904
C -1.6043 -1.5779 -1.5933
C -1.6061 -1.5809 -1.5941
C -1.6003 -1.5771 -1.5944
C -1.6027 -1.5782 -1.5929
C -1.6060 -1.5803 -1.5950
C -1.5980 -1.5790 -1.5939
C -1.6033 -1.5731 -1.5895
C -1.6058 -1.5729 -1.5892
C -1.5991 -1.5707 -1.5892
C -1.6078 -1.5722 -1.5881
C -1.6074 -1.5680 -1.5848
C -1.6144 -1.5731 -1.5877
C -1.6173 -1.5706 -1.5880
C -1.6167 -1.5760 -1.5871
C -1.6144 -1.5779 -1.5881
C -1.6244 -1.5781 -1.5885
C -1.6260 -1.5761 -1.5876
C -1.6241 -1.5865 -1.5930
C -1.6241 -1.5877 -1.5924
C -1.6297 -1.5882 -1.5949
C -1.6184 -1.5913 -1.5954
C -1.6110 -1.5899 -1.5952
C -1.6195 -1.6000 -1.5981
C -1.6198 -1.5860 -1.5944
C -1.6152 -1.5831 -1.5956
C -1.6259 -1.5838 -1.5925
C -1.6295 -1.5746 -1.5865
C -1.6337 -1.5717 -1.5851
C -1.6289 -1.5755 -1.5867
C -1.6265 -1.5776 -1.5889
C -1.6321 -1.5730 -1.5845
C -1.6360 -1.5690 -1.5827
C -1.6346 -1.5789 -1.5853
C -1.6377 -1.5733 -1.5847
C -1.6394 -1.5832 -1.5874
C -1.6351 -1.5773 -1.5916
C -1.6423 -1.5823 -1.5761
C -1.6443 -1.5925 -1.5932
C -1.6298 -1.5839 -1.5864
C -1.6280 -1.5866 -1.5880
C -1.6276 -1.5701 -1.5842
C -1.6287 -1.5735 -1.5858
C -1.6223 -1.5626 -1.5834
C -1.6203 -1.5591 -1.5814
C -1.6194 -1.5627 -1.5855
C -1.6187 -1.5661 -1.5869
C -1.6181 -1.5597 -1.5884
C -1.6190 -1.5611 -1.5830
C -1.6207 -1.5553 -1.5799
C -1.6160 -1.5667 -1.5839
C -1.6157 -1.5716 -1.5852
C -1.6143 -1.5657 -1.5824
C -1.6164 -1.5632 -1.5806
C -1.6158 -1.5705 -1.5835
C -1.6131 -1.5746 -1.5756
C -1.6218 -1.5591 -1.5848
C -1.6219 -1.5530 -1.5921
C -1.6213 -1.5581 -1.5780
C -1.6267 -1.5573 -1.5862
C -1.6154 -1.5814 -1.5925
C -1.6118 -1.5889 -1.5930
C -1.6094 -1.5624 -1.5817
C -1.6062 -1.5645 -1.5832
C -1.6090 -1.5585 -1.5781
C -1.6130 -1.5617 -1.5743
C -1.6037 -1.5550 -1.5766
C -1.6019 -1.5543 -1.5776
C -1.6050 -1.5488 -1.5732
C -1.6053 -1.5525 -1.5706
C -1.6018 -1.5441 -1.5725
C -1.6080 -1.5454 -1.5707
C -1.6149 -1.5461 -1.5753
C -1.6179 -1.5490 -1.5813
C -1.6158 -1.5423 -1.5711
C -1.6184 -1.5415 -1.5726
C -1.6106 -1.5386 -1.5633
C -1.6099 -1.5339 -1.5558
C -1.6134 -1.5322 -1.5554
C -1.6025 -1.5313 -1.5489
C -1.6010 -1.5286 -1.5427
C -1.5953 -1.5324 -1.5499
C -1.5886 -1.5302 -1.5448
C -1.5967 -1.5376 -1.5567
C -1.5902 -1.5382 -1.5566
C -1.6044 -1.5409 -1.5634
C -1.6001 -1.5580 -1.5783
C -1.6016 -1.5613 -1.5775
C -1.5946 -1.5561 -1.5801
C -1.5937 -1.5538 -1.5816
C -1.5898 -1.5589 -1.5808
C -1.5862 -1.5546 -1.5841
C -1.5874 -1.5589 -1.5802
C -1.5926 -1.5656 -1.5811
C -1.5937 -1.5684 -1.5822
C -1.5935 -1.5681 -1.5812
138
REAL frame=69
C -1.6035 -1.5711 -1.5787
C -1.6029 -1.5684 -1.5767
C -1.6012 -1.5722 -1.5809
C -1.6067 -1.5716 -1.5764
C -1.6048 -1.5748 -1.5796
C -1.6027 -1.5767 -1.5811
C -1.6073 -1.5756 -1.5795
C -1.6055 -1.5746 -1.5792
C -1.6099 -1.5772 -1.5788
C -1.6019 -1.5721 -1.5813
C -1.5977 -1.5683 -1.5817
C -1.6033 -1.5705 -1.5829
C -1.6051 -1.5685 -1.5796
C -1.5991 -1.5655 -1.5851
C -1.5971 -1.5599 -1.5826
C -1.5956 -1.5697 -1.5858
C -1.6016 -1.5628 -1.5894
C -1.6021 -1.5704 -1.5930
C -1.6005 -1.5774 -1.5929
C -1.6077 -1.5681 -1.5966
C -1.6091 -1.5745 -1.5992
C -1.6111 -1.5582 -1.5967
C -1.6138 -1.5560 -1.6007
C -1.6034 -1.5564 -1.5957
C -1.6098 -1.5510 -1.5932
C -1.6121 -1.5436 -1.5926
C -1.6061 -1.5529 -1.5893
C -1.6050 -1.5480 -1.5863
C -1.6060 -1.5761 -1.5857
C -1.6076 -1.5819 -1.5852
C -1.6057 -1.5744 -1.5882
C -1.6052 -1.5694 -1.5869
C -1.6056 -1.5783 -1.5922
C -1.6018 -1.5796 -1.5954
C -1.6093 -1.5828 -1.5925
C -1.6070 -1.5849 -1.5925
C -1.6112 -1.5869 -1.5933
C -1.6137 -1.5784 -1.5913
C -1.6114 -1.5748 -1.5917
C -1.6202 -1.5804 -1.5891
C -1.6066 -1.5755 -1.5898
C -1.6079 -1.5731 -1.5871
C -1.6064 -1.5753 -1.5903
C -1.6043 -1.5780 -1.5935
C -1.6064 -1.5807 -1.5952
C -1.6003 -1.5773 -1.5943
C -1.6028 -1.5781 -1.5928
C -1.6061 -1.5803 -1.5950
C -1.5978 -1.5784 -1.5939
C -1.6033 -1.5731 -1.5895
C -1.6058 -1.5728 -1.5890
C -1.5990 -1.5700 -1.5892
C -1.6079 -1.5723 -1.5881
C -1.6073 -1.5684 -1.5850
C -1.6143 -1.5728 -1.5877
C -1.6173 -1.5706 -1.5879
C -1.6168 -1.5761 -1.5871
C -1.6149 -1.5781 -1.5886
C -1.6244 -1.5782 -1.5886
C -1.6261 -1.5762 -1.5877
C -1.6240 -1.5865 -1.5930
C -1.6244 -1.5876 -1.5925
C -1.6298 -1.5884 -1.5951
C -1.6186 -1.5915 -1.5954
C -1.6111 -1.5901 -1.5952
C -1.6198 -1.5999 -1.5980
C -1.6200 -1.5857 -1.5943
C -1.6152 -1.5831 -1.5955
C -1.6260 -1.5840 -1.5926
C -1.6297 -1.5748 -1.5866
C -1.6336 -1.5716 -1.5850
C -1.6290 -1.5753 -1.5867
C -1.6261 -1.5775 -1.5887
C -1.6321 -1.5728 -1.5845
C -1.6354 -1.5690 -1.5826
C -1.6345 -1.5790 -1.5852
C -1.6380 -1.5737 -1.5846
C -1.6395 -1.5834 -1.5874
C -1.6345 -1.5776 -1.5914
C -1.6423 -1.5822 -1.5761
C -1.6443 -1.5932 -1.5929
C -1.6298 -1.5838 -1.5864
C -1.6279 -1.5868 -1.5880
C -1.6275 -1.5699 -1.5843
C -1.6287 -1.5735 -1.5858
C -1.6224 -1.5626 -1.5833
C -1.6204 -1.5594 -1.5816
C -1.6194 -1.5626 -1.5856
C -1.6191 -1.5664 -1.5867
C -1.6176 -1.5602 -1.5881
C -1.6189 -1.5611 -1.5829
C -1.6206 -1.5553 -1.5799
C -1.6160 -1.5667 -1.5838
C -1.6155 -1.5717 -1.5852
C -1.6143 -1.5656 -1.5825
C -1.6164 -1.5629 -1.5809
C -1.6156 -1.5705 -1.5837
C -1.6128 -1.5745 -1.5756
C -1.6218 -1.5590 -1.5847
C -1.6218 -1.5528 -1.5916
C -1.6213 -1.5580 -1.5780
C -1.6266 -1.5572 -1.5864
C -1.6154 -1.5813 -1.5927
C -1.6112 -1.5888 -1.5924
C -1.6094 -1.5625 -1.5816
C -1.6062 -1.5644 -1.5833
C -1.6090 -1.5585 -1.5782
C -1.6129 -1.5619 -1.5743
C -1.6038 -1.5551 -1.5766
C -1.6018 -1.5540 -1.5773
C -1.6050 -1.5487 -1.5731
C -1.6059 -1.5523 -1.5708
C -1.6016 -1.5438 -1.5728
C -1.6080 -1.5456 -1.5706
C -1.6150 -1.5461 -1.5753
C -1.6182 -1.5487 -1.5812
C -1.6158 -1.5422 -1.5710
C -1.6182 -1.5415 -1.5725
C -1.6106 -1.5387 -1.5634
C -1.6099 -1.5340 -1.5559
C -1.6134 -1.5323 -1.5551
C -1.6025 -1.5313 -1.5489
C -1.6014 -1.5286 -1.5426
C -1.5954 -1.5325 -1.5500
C -1.5886 -1.5301 -1.5448
C -1.5966 -1.5376 -1.5567
C -1.5903 -1.5383 -1.5569
C -1.6045 -1.5410 -1.5634
C -1.6002 -1.5580 -1.5783
C -1.6016 -1.5611 -1.5774
C -1.5947 -1.5562 -1.5802
C -1.5936 -1.5536 -1.5810
C -1.5898 -1.5589 -1.5807
C -1.5863 -1.5544 -1.5839
C -1.5872 -1.5590 -1.5802
C -1.5926 -1.5654 -1.5812
C -1.5938 -1.5683 -1.5821
C -1.5935 -1.5681 -1.5812
138
REAL frame=70
C -1.6036 -1.5712 -1.5786
C -1.6025 -1.5683 -1.5763
C -1.6013 -1.5716 -1.5803
C -1.6066 -1.5717 -1.5764
C -1.6047 -1.5749 -1.5795
C -1.6030 -1.5770 -1.5813
C -1.6072 -1.5760 -1.5792
C -1.6055 -1.5746 -1.5792
C -1.6098 -1.5770 -1.5788
C -1.6018 -1.5720 -1.5813
C -1.5979 -1.5688 -1.5811
C -1.6033 -1.5706 -1.5830
C -1.6055 -1.5686 -1.5797
C -1.5993 -1.5656 -1.5850
C -1.5973 -1.5593 -1.5825
C -1.5959 -1.5698 -1.5857
C -1.6017 -1.5628 -1.5894
C -1.6021 -1.5704 -1.5931
C -1.6002 -1.5774 -1.5930
C -1.6078 -1.5682 -1.5966
C -1.6087 -1.5750 -1.5992
C -1.6111 -1.5581 -1.5967
C -1.6139 -1.5560 -1.6008
C -1.6036 -1.5560 -1.5959
C -1.6097 -1.5511 -1.5932
C -1.6123 -1.5439 -1.5920
C -1.6060 -1.5530 -1.5894
C -1.6052 -1.5478 -1.5864
C -1.6060 -1.5762 -1.5859
C -1.6075 -1.5819 -1.5852
C -1.6057 -1.5743 -1.5882
C -1.6047 -1.5692 -1.5873
C -1.6056 -1.5782 -1.5920
C -1.6024 -1.5801 -1.5949
C -1.6092 -1.5828 -1.5926
C -1.6074 -1.5851 -1.5923
C -1.6109 -1.5870 -1.5933
C -1.6136 -1.5784 -1.5915
C -1.6114 -1.5747 -1.5918
C -1.6201 -1.5802 -1.5890
C -1.6066 -1.5753 -1.5898
C -1.6080 -1.5730 -1.5872
C -1.6065 -1.5751 -1.5902
C -1.6043 -1.5781 -1.5935
C -1.6067 -1.5805 -1.5962
C -1.6003 -1.5776 -1.5941
C -1.6029 -1.5780 -1.5928
C -1.6062 -1.5803 -1.5950
C -1.5978 -1.5779 -1.5940
C -1.6034 -1.5730 -1.5896
C -1.6058 -1.5726 -1.5888
C -1.5989 -1.5696 -1.5892
C -1.6080 -1.5723 -1.5880
C -1.6072 -1.5688 -1.5852
C -1.6143 -1.5726 -1.5877
C -1.6173 -1.5707 -1.5879
C -1.6169 -1.5761 -1.5871
C -1.6153 -1.5782 -1.5890
C -1.6243 -1.5783 -1.5887
C -1.6262 -1.5763 -1.5878
C -1.6241 -1.5865 -1.5930
C -1.6245 -1.5876 -1.5926
C -1.6298 -1.5883 -1.5952
C -1.6186 -1.5916 -1.5953
C -1.6113 -1.5903 -1.5952
C -1.6200 -1.5997 -1.5980
C -1.6202 -1.5856 -1.5942
C -1.6152 -1.5832 -1.5954
C -1.6261 -1.5841 -1.5926
C -1.6298 -1.5749 -1.5866
C -1.6335 -1.5716 -1.5850
C -1.6292 -1.5751 -1.5867
C -1.6256 -1.5775 -1.5882
C -1.6320 -1.5727 -1.5845
C -1.6349 -1.5690 -1.5825
C -1.6346 -1.5790 -1.5852
C -1.6381 -1.5745 -1.5842
C -1.6394 -1.5835 -1.5873
C -1.6342 -1.5779 -1.5916
C -1.6424 -1.5821 -1.5762
C -1.6442 -1.5938 -1.5925
C -1.6298 -1.5838 -1.5865
C -1.6277 -1.5869 -1.5880
C -1.6275 -1.5697 -1.5845
C -1.6287 -1.5734 -1.5858
C -1.6225 -1.5626 -1.5831
C -1.6208 -1.5597 -1.5817
C -1.6195 -1.5625 -1.5857
C -1.6196 -1.5667 -1.5865
C -1.6173 -1.5607 -1.5876
C -1.6189 -1.5610 -1.5828
C -1.6205 -1.5552 -1.5800
C -1.6159 -1.5667 -1.5837
C -1.6152 -1.5717 -1.5853
C -1.6144 -1.5657 -1.5826
C -1.6164 -1.5627 -1.5811
C -1.6155 -1.5705 -1.5839
C -1.6124 -1.5744 -1.5757
C -1.6217 -1.5590 -1.5847
C -1.6216 -1.5526 -1.5912
C -1.6214 -1.5579 -1.5779
C -1.6265 -1.5573 -1.5864
C -1.6154 -1.5812 -1.5928
C -1.6108 -1.5887 -1.5920
C -1.6094 -1.5625 -1.5816
C -1.6063 -1.5645 -1.5835
C -1.6090 -1.5585 -1.5783
C -1.6130 -1.5618 -1.5744
C -1.6039 -1.5552 -1.5766
C -1.6016 -1.5537 -1.5769
C -1.6050 -1.5487 -1.5731
C -1.6067 -1.5520 -1.5709
C -1.6014 -1.5436 -1.5736
C -1.6080 -1.5457 -1.5706
C -1.6150 -1.5463 -1.5753
C -1.6186 -1.5487 -1.5811
C -1.6157 -1.5422 -1.5709
C -1.6181 -1.5416 -1.5726
C -1.6106 -1.5387 -1.5635
C -1.6100 -1.5341 -1.5561
C -1.6135 -1.5324 -1.5549
C -1.6025 -1.5312 -1.5489
C -1.6017 -1.5285 -1.5427
C -1.5954 -1.5327 -1.5501
C -1.5886 -1.5300 -1.5448
C -1.5966 -1.5375 -1.5566
C -1.5906 -1.5383 -1.5570
C -1.6045 -1.5409 -1.5634
C -1.6002 -1.5579 -1.5783
C -1.6017 -1.5610 -1.5772
C -1.5948 -1.5563 -1.5802
C -1.5937 -1.5534 -1.5802
C -1.5899 -1.5588 -1.5806
C -1.5862 -1.5545 -1.5837
C -1.5870 -1.5590 -1.5802
C -1.5926 -1.5654 -1.5813
C -1.5939 -1.5683 -1.5821
C -1.5935 -1.5681 -1.5811
138
REAL frame=71
C -1.6047 -1.5723 -1.5797
C -1.6032 -1.5692 -1.5774
C -1.6026 -1.5722 -1.5811
C -1.6072 -1.5729 -1.5775
C -1.6056 -1.5760 -1.5805
C -1.6042 -1.5781 -1.5826
C -1.6080 -1.5774 -1.5798
C -1.6065 -1.5758 -1.5804
C -1.6108 -1.5780 -1.5798
C -1.6027 -1.5729 -1.5823
C -1.5993 -1.5703 -1.5816
C -1.6042 -1.5717 -1.5842
C -1.6070 -1.5695 -1.5812
C -1.6004 -1.5667 -1.5860
C -1.5985 -1.5597 -1.5834
C -1.5972 -1.5709 -1.5866
C -1.6029 -1.5639 -1.5904
C -1.6031 -1.5714 -1.5942
C -1.6009 -1.5786 -1.5941
C -1.6089 -1.5693 -1.5976
C -1.6093 -1.5761 -1.6004
C -1.6122 -1.5592 -1.5977
C -1.6151 -1.5572 -1.6019
C -1.6050 -1.5567 -1.5973
C -1.6107 -1.5522 -1.5942
C -1.6136 -1.5451 -1.5927
C -1.6070 -1.5542 -1.5906
C -1.6066 -1.5485 -1.5875
C -1.6070 -1.5773 -1.5870
C -1.6084 -1.5831 -1.5863
C -1.6067 -1.5753 -1.5892
C -1.6052 -1.5702 -1.5886
C -1.6066 -1.5792 -1.5929
C -1.6042 -1.5813 -1.5956
C -1.6103 -1.5839 -1.5938
C -1.6089 -1.5866 -1.5933
C -1.6116 -1.5882 -1.5947
C -1.6146 -1.5796 -1.5927
C -1.6125 -1.5757 -1.5930
C -1.6210 -1.5811 -1.5901
C -1.6076 -1.5763 -1.5908
C -1.6092 -1.5740 -1.5884
C -1.6077 -1.5761 -1.5911
C -1.6053 -1.5794 -1.5946
C -1.6078 -1.5814 -1.5982
C -1.6015 -1.5791 -1.5948
C -1.6040 -1.5789 -1.5939
C -1.6074 -1.5813 -1.5960
C -1.5989 -1.5788 -1.5951
C -1.6045 -1.5741 -1.5907
C -1.6068 -1.5735 -1.5898
C -1.6000 -1.5704 -1.5900
C -1.6092 -1.5734 -1.5891
C -1.6081 -1.5702 -1.5866
C -1.6153 -1.5735 -1.5887
C -1.6184 -1.5719 -1.5889
C -1.6180 -1.5773 -1.5882
C -1.6167 -1.5794 -1.5904
C -1.6252 -1.5795 -1.5898
C -1.6274 -1.5776 -1.5892
C -1.6252 -1.5876 -1.5940
C -1.6255 -1.5888 -1.5936
C -1.6307 -1.5891 -1.5962
C -1.6197 -1.5927 -1.5964
C -1.6125 -1.5915 -1.5962
C -1.6212 -1.6005 -1.5990
C -1.6214 -1.5868 -1.5952
C -1.6162 -1.5843 -1.5964
C -1.6272 -1.5853 -1.5937
C -1.6310 -1.5761 -1.5879
C -1.6345 -1.5727 -1.5860
C -1.6303 -1.5760 -1.5877
C -1.6262 -1.5786 -1.5887
C -1.6328 -1.5738 -1.5857
C -1.6355 -1.5701 -1.5837
C -1.6357 -1.5800 -1.5863
C -1.6391 -1.5768 -1.5849
C -1.6404 -1.5848 -1.5883
C -1.6350 -1.5793 -1.5932
C -1.6437 -1.5831 -1.5777
C -1.6450 -1.5953 -1.5934
C -1.6309 -1.5850 -1.5876
C -1.6284 -1.5880 -1.5891
C -1.6286 -1.5706 -1.5858
C -1.6296 -1.5744 -1.5870
C -1.6235 -1.5638 -1.5841
C -1.6225 -1.5611 -1.5829
C -1.6206 -1.5636 -1.5868
C -1.6213 -1.5680 -1.5875
C -1.6181 -1.5623 -1.5883
C -1.6199 -1.5621 -1.5839
C -1.6215 -1.5563 -1.5812
C -1.6168 -1.5677 -1.5848
C -1.6159 -1.5727 -1.5866
C -1.6155 -1.5668 -1.5838
C -1.6175 -1.5637 -1.5825
C -1.6165 -1.5716 -1.5851
C -1.6129 -1.5753 -1.5770
C -1.6227 -1.5600 -1.5859
C -1.6223 -1.5534 -1.5919
C -1.6226 -1.5591 -1.5789
C -1.6274 -1.5585 -1.5875
C -1.6164 -1.5822 -1.5941
C -1.6116 -1.5896 -1.5931
C -1.6105 -1.5637 -1.5826
C -1.6074 -1.5656 -1.5849
C -1.6099 -1.5597 -1.5794
C -1.6141 -1.5625 -1.5759
C -1.6051 -1.5563 -1.5779
C -1.6025 -1.5545 -1.5777
C -1.6060 -1.5499 -1.5742
C -1.6085 -1.5525 -1.5722
C -1.6024 -1.5446 -1.5757
C -1.6092 -1.5469 -1.5718
C -1.6161 -1.5476 -1.5763
C -1.6201 -1.5500 -1.5821
C -1.6166 -1.5433 -1.5719
C -1.6192 -1.5429 -1.5740
C -1.6116 -1.5399 -1.5646
C -1.6110 -1.5354 -1.5574
C -1.6148 -1.5338 -1.5563
C -1.6036 -1.5323 -1.5502
C -1.6031 -1.5293 -1.5441
C -1.5965 -1.5340 -1.5513
C -1.5898 -1.5311 -1.5459
C -1.5976 -1.5386 -1.5578
C -1.5920 -1.5396 -1.5582
C -1.6057 -1.5419 -1.5645
C -1.6011 -1.5589 -1.5794
C -1.6027 -1.5620 -1.5783
C -1.5960 -1.5575 -1.5813
C -1.5949 -1.5543 -1.5806
C -1.5910 -1.5598 -1.5818
C -1.5872 -1.5558 -1.5845
C -1.5880 -1.5598 -1.5813
C -1.5935 -1.5665 -1.5824
C -1.5950 -1.5692 -1.5831
C -1.5945 -1.5691 -1.5822
138
REAL frame=72
C -1.6047 -1.5723 -1.5796
C -1.6031 -1.5689 -1.5776
C -1.6027 -1.5719 -1.5810
C -1.6067 -1.5731 -1.5775
C -1.6055 -1.5761 -1.5805
C -1.6043 -1.5781 -1.5828
C -1.6078 -1.5777 -1.5792
C -1.6064 -1.5758 -1.5805
C -1.6107 -1.5778 -1.5798
C -1.6026 -1.5728 -1.5822
C -1.5996 -1.5705 -1.5813
C -1.6042 -1.5718 -1.5843
C -1.6073 -1.5692 -1.5817
C -1.6005 -1.5666 -1.5860
C -1.5986 -1.5591 -1.5834
C -1.5975 -1.5710 -1.5865
C -1.6030 -1.5640 -1.5903
C -1.6031 -1.5714 -1.5943
C -1.6004 -1.5787 -1.5941
C -1.6088 -1.5694 -1.5975
C -1.6089 -1.5759 -1.6005
C -1.6122 -1.5592 -1.5978
C -1.6152 -1.5572 -1.6019
C -1.6054 -1.5562 -1.5976
C -1.6106 -1.5522 -1.5941
C -1.6138 -1.5451 -1.5927
C -1.6069 -1.5544 -1.5906
C -1.6070 -1.5481 -1.5875
C -1.6069 -1.5773 -1.5870
C -1.6084 -1.5832 -1.5864
C -1.6067 -1.5752 -1.5892
C -1.6045 -1.5702 -1.5889
C -1.6067 -1.5790 -1.5928
C -1.6048 -1.5810 -1.5956
C -1.6103 -1.5839 -1.5939
C -1.6092 -1.5871 -1.5934
C -1.6113 -1.5884 -1.5951
C -1.6145 -1.5795 -1.5927
C -1.6125 -1.5756 -1.5932
C -1.6209 -1.5809 -1.5901
C -1.6075 -1.5762 -1.5908
C -1.6093 -1.5740 -1.5884
C -1.6078 -1.5761 -1.5911
C -1.6053 -1.5796 -1.5946
C -1.6078 -1.5812 -1.5988
C -1.6017 -1.5795 -1.5945
C -1.6040 -1.5787 -1.5940
C -1.6074 -1.5811 -1.5959
C -1.5991 -1.5788 -1.5952
C -1.6046 -1.5740 -1.5908
C -1.6067 -1.5734 -1.5898
C -1.6000 -1.5705 -1.5898
C -1.6092 -1.5734 -1.5891
C -1.6080 -1.5704 -1.5869
C -1.6153 -1.5734 -1.5886
C -1.6184 -1.5719 -1.5889
C -1.6181 -1.5773 -1.5883
C -1.6169 -1.5795 -1.5906
C -1.6252 -1.5795 -1.5898
C -1.6275 -1.5778 -1.5896
C -1.6253 -1.5876 -1.5940
C -1.6252 -1.5889 -1.5936
C -1.6305 -1.5886 -1.5960
C -1.6198 -1.5927 -1.5964
C -1.6127 -1.5917 -1.5962
C -1.6214 -1.6002 -1.5989
C -1.6215 -1.5870 -1.5953
C -1.6162 -1.5843 -1.5962
C -1.6273 -1.5853 -1.5937
C -1.6312 -1.5761 -1.5879
C -1.6345 -1.5727 -1.5860
C -1.6304 -1.5759 -1.5876
C -1.6259 -1.5784 -1.5882
C -1.6327 -1.5737 -1.5857
C -1.6353 -1.5700 -1.5837
C -1.6358 -1.5798 -1.5863
C -1.6389 -1.5779 -1.5847
C -1.6403 -1.5850 -1.5881
C -1.6351 -1.5795 -1.5939
C -1.6441 -1.5831 -1.5780
C -1.6447 -1.5956 -1.5933
C -1.6309 -1.5851 -1.5876
C -1.6281 -1.5880 -1.5891
C -1.6287 -1.5704 -1.5858
C -1.6296 -1.5742 -1.5871
C -1.6235 -1.5639 -1.5840
C -1.6231 -1.5613 -1.5829
C -1.6207 -1.5636 -1.5867
C -1.6220 -1.5680 -1.5874
C -1.6180 -1.5625 -1.5881
C -1.6198 -1.5621 -1.5839
C -1.6214 -1.5563 -1.5813
C -1.6167 -1.5676 -1.5849
C -1.6155 -1.5725 -1.5868
C -1.6155 -1.5668 -1.5838
C -1.6175 -1.5638 -1.5825
C -1.6165 -1.5716 -1.5851
C -1.6124 -1.5752 -1.5772
C -1.6226 -1.5600 -1.5860
C -1.6219 -1.5533 -1.5916
C -1.6228 -1.5593 -1.5788
C -1.6272 -1.5587 -1.5873
C -1.6163 -1.5821 -1.5942
C -1.6116 -1.5893 -1.5935
C -1.6106 -1.5637 -1.5826
C -1.6074 -1.5656 -1.5851
C -1.6099 -1.5599 -1.5794
C -1.6142 -1.5618 -1.5762
C -1.6051 -1.5562 -1.5779
C -1.6025 -1.5544 -1.5775
C -1.6060 -1.5501 -1.5742
C -1.6092 -1.5519 -1.5723
C -1.6024 -1.5447 -1.5766
C -1.6093 -1.5470 -1.5719
C -1.6162 -1.5477 -1.5761
C -1.6205 -1.5504 -1.5819
C -1.6166 -1.5433 -1.5718
C -1.6193 -1.5430 -1.5741
C -1.6116 -1.5400 -1.5645
C -1.6110 -1.5355 -1.5575
C -1.6153 -1.5340 -1.5568
C -1.6037 -1.5323 -1.5503
C -1.6034 -1.5290 -1.5445
C -1.5966 -1.5341 -1.5512
C -1.5899 -1.5313 -1.5458
C -1.5976 -1.5386 -1.5579
C -1.5924 -1.5397 -1.5581
C -1.6057 -1.5417 -1.5645
C -1.6011 -1.5588 -1.5794
C -1.6027 -1.5618 -1.5782
C -1.5961 -1.5576 -1.5813
C -1.5950 -1.5544 -1.5801
C -1.5911 -1.5597 -1.5818
C -1.5872 -1.5562 -1.5842
C -1.5882 -1.5595 -1.5811
C -1.5935 -1.5665 -1.5823
C -1.5952 -1.5691 -1.5831
C -1.5945 -1.5690 -1.5821
138
REAL frame=73
C -1.6048 -1.5724 -1.5794
C -1.6034 -1.5687 -1.5781
C -1.6028 -1.5719 -1.5814
C -1.6060 -1.5733 -1.5776
C -1.6055 -1.5761 -1.5804
C -1.6041 -1.5780 -1.5828
C -1.6077 -1.5778 -1.5786
C -1.6064 -1.5758 -1.5807
C -1.6106 -1.5777 -1.5797
C -1.6026 -1.5727 -1.5821
C -1.5996 -1.5705 -1.5813
C -1.6043 -1.5718 -1.5843
C -1.6075 -1.5687 -1.5824
C -1.6005 -1.5665 -1.5859
C -1.5987 -1.5587 -1.5834
C -1.5976 -1.5709 -1.5863
C -1.6032 -1.5642 -1.5903
C -1.6031 -1.5714 -1.5943
C -1.5999 -1.5788 -1.5942
C -1.6088 -1.5693 -1.5975
C -1.6086 -1.5755 -1.6006
C -1.6121 -1.5593 -1.5979
C -1.6154 -1.5573 -1.6019
C -1.6058 -1.5557 -1.5978
C -1.6106 -1.5522 -1.5940
C -1.6139 -1.5449 -1.5929
C -1.6068 -1.5545 -1.5907
C -1.6073 -1.5477 -1.5875
C -1.6068 -1.5772 -1.5869
C -1.6083 -1.5834 -1.5865
C -1.6066 -1.5751 -1.5891
C -1.6039 -1.5703 -1.5891
C -1.6067 -1.5789 -1.5927
C -1.6052 -1.5804 -1.5958
C -1.6103 -1.5840 -1.5941
C -1.6094 -1.5876 -1.5937
C -1.6110 -1.5886 -1.5956
C -1.6145 -1.5795 -1.5927
C -1.6125 -1.5755 -1.5933
C -1.6208 -1.5808 -1.5900
C -1.6075 -1.5761 -1.5908
C -1.6094 -1.5739 -1.5884
C -1.6080 -1.5761 -1.5911
C -1.6052 -1.5797 -1.5945
C -1.6078 -1.5812 -1.5990
C -1.6019 -1.5800 -1.5943
C -1.6040 -1.5785 -1.5941
C -1.6074 -1.5809 -1.5958
C -1.5994 -1.5790 -1.5953
C -1.6047 -1.5740 -1.5908
C -1.6067 -1.5734 -1.5899
C -1.6002 -1.5708 -1.5897
C -1.6092 -1.5733 -1.5891
C -1.6079 -1.5703 -1.5871
C -1.6153 -1.5734 -1.5884
C -1.6184 -1.5719 -1.5888
C -1.6181 -1.5773 -1.5884
C -1.6170 -1.5795 -1.5907
C -1.6253 -1.5796 -1.5898
C -1.6275 -1.5780 -1.5899
C -1.6255 -1.5877 -1.5940
C -1.6249 -1.5891 -1.5935
C -1.6302 -1.5882 -1.5957
C -1.6198 -1.5925 -1.5964
C -1.6129 -1.5917 -1.5962
C -1.6215 -1.5998 -1.5989
C -1.6215 -1.5874 -1.5953
C -1.6163 -1.5842 -1.5961
C -1.6274 -1.5853 -1.5937
C -1.6313 -1.5759 -1.5880
C -1.6344 -1.5728 -1.5859
C -1.6304 -1.5757 -1.5875
C -1.6256 -1.5783 -1.5880
C -1.6325 -1.5736 -1.5858
C -1.6353 -1.5698 -1.5838
C -1.6359 -1.5797 -1.5862
C -1.6386 -1.5788 -1.5845
C -1.6402 -1.5851 -1.5880
C -1.6353 -1.5798 -1.5947
C -1.6443 -1.5830 -1.5784
C -1.6444 -1.5957 -1.5932
C -1.6309 -1.5852 -1.5876
C -1.6277 -1.5878 -1.5891
C -1.6288 -1.5704 -1.5858
C -1.6295 -1.5739 -1.5873
C -1.6235 -1.5639 -1.5839
C -1.6235 -1.5615 -1.5829
C -1.6208 -1.5637 -1.5866
C -1.6225 -1.5679 -1.5874
C -1.6182 -1.5626 -1.5881
C -1.6198 -1.5620 -1.5839
C -1.6212 -1.5562 -1.5813
C -1.6166 -1.5675 -1.5849
C -1.6150 -1.5723 -1.5871
C -1.6156 -1.5669 -1.5838
C -1.6176 -1.5640 -1.5824
C -1.6165 -1.5715 -1.5851
C -1.6120 -1.5750 -1.5775
C -1.6225 -1.5600 -1.5861
C -1.6216 -1.5532 -1.5915
C -1.6229 -1.5597 -1.5788
C -1.6270 -1.5588 -1.5871
C -1.6163 -1.5821 -1.5942
C -1.6118 -1.5891 -1.5942
C -1.6107 -1.5638 -1.5826
C -1.6075 -1.5656 -1.5853
C -1.6098 -1.5600 -1.5793
C -1.6141 -1.5610 -1.5765
C -1.6051 -1.5561 -1.5779
C -1.6025 -1.5543 -1.5776
C -1.6060 -1.5502 -1.5742
C -1.6094 -1.5515 -1.5722
C -1.6024 -1.5450 -1.5771
C -1.6094 -1.5470 -1.5721
C -1.6162 -1.5478 -1.5760
C -1.6208 -1.5509 -1.5816
C -1.6165 -1.5433 -1.5717
C -1.6195 -1.5431 -1.5742
C -1.6116 -1.5400 -1.5644
C -1.6110 -1.5356 -1.5576
C -1.6158 -1.5343 -1.5575
C -1.6037 -1.5324 -1.5504
C -1.6035 -1.5286 -1.5449
C -1.5966 -1.5341 -1.5511
C -1.5901 -1.5316 -1.5457
C -1.5976 -1.5386 -1.5579
C -1.5927 -1.5398 -1.5580
C -1.6058 -1.5416 -1.5645
C -1.6010 -1.5588 -1.5794
C -1.6028 -1.5617 -1.5781
C -1.5963 -1.5576 -1.5812
C -1.5949 -1.5546 -1.5797
C -1.5913 -1.5596 -1.5820
C -1.5872 -1.5565 -1.5840
C -1.5886 -1.5590 -1.5810
C -1.5934 -1.5666 -1.5823
C -1.5953 -1.5690 -1.5831
C -1.5945 -1.5689 -1.5821
138
REAL frame=74
C -1.6048 -1.5725 -1.5793
C -1.6038 -1.5686 -1.5786
C -1.6028 -1.5720 -1.5819
C -1.6054 -1.5734 -1.5775
C -1.6054 -1.5761 -1.5804
C -1.6038 -1.5778 -1.5827
C -1.6076 -1.5778 -1.5781
C -1.6064 -1.5758 -1.5809
C -1.6105 -1.5776 -1.5796
C -1.6026 -1.5727 -1.5820
C -1.5993 -1.5703 -1.5817
C -1.6044 -1.5718 -1.5844
C -1.6075 -1.5683 -1.5829
C -1.6004 -1.5663 -1.5859
C -1.5986 -1.5585 -1.5834
C -1.5976 -1.5709 -1.5862
C -1.6034 -1.5644 -1.5902
C -1.6031 -1.5714 -1.5943
C -1.5994 -1.5789 -1.5943
C -1.6087 -1.5693 -1.5976
C -1.6084 -1.5749 -1.6007
C -1.6121 -1.5594 -1.5980
C -1.6155 -1.5573 -1.6019
C -1.6062 -1.5553 -1.5978
C -1.6105 -1.5522 -1.5939
C -1.6139 -1.5446 -1.5932
C -1.6067 -1.5547 -1.5906
C -1.6076 -1.5476 -1.5875
C -1.6067 -1.5772 -1.5868
C -1.6083 -1.5835 -1.5866
C -1.6064 -1.5751 -1.5891
C -1.6034 -1.5704 -1.5892
C -1.6068 -1.5787 -1.5926
C -1.6052 -1.5797 -1.5962
C -1.6104 -1.5840 -1.5942
C -1.6095 -1.5881 -1.5941
C -1.6108 -1.5888 -1.5960
C -1.6145 -1.5794 -1.5927
C -1.6125 -1.5754 -1.5933
C -1.6207 -1.5806 -1.5900
C -1.6076 -1.5761 -1.5908
C -1.6094 -1.5738 -1.5884
C -1.6082 -1.5762 -1.5912
C -1.6051 -1.5797 -1.5945
C -1.6077 -1.5813 -1.5987
C -1.6021 -1.5803 -1.5942
C -1.6039 -1.5783 -1.5943
C -1.6074 -1.5805 -1.5957
C -1.5997 -1.5792 -1.5955
C -1.6048 -1.5738 -1.5908
C -1.6067 -1.5733 -1.5901
C -1.6004 -1.5713 -1.5896
C -1.6092 -1.5732 -1.5891
C -1.6078 -1.5701 -1.5873
C -1.6153 -1.5735 -1.5882
C -1.6184 -1.5719 -1.5888
C -1.6182 -1.5773 -1.5886
C -1.6169 -1.5794 -1.5907
C -1.6254 -1.5796 -1.5899
C -1.6275 -1.5781 -1.5901
C -1.6256 -1.5877 -1.5940
C -1.6247 -1.5893 -1.5935
C -1.6300 -1.5878 -1.5954
C -1.6198 -1.5924 -1.5965
C -1.6132 -1.5917 -1.5963
C -1.6216 -1.5995 -1.5988
C -1.6216 -1.5878 -1.5954
C -1.6163 -1.5842 -1.5959
C -1.6276 -1.5852 -1.5936
C -1.6314 -1.5757 -1.5880
C -1.6344 -1.5729 -1.5860
C -1.6305 -1.5756 -1.5874
C -1.6255 -1.5781 -1.5880
C -1.6324 -1.5735 -1.5858
C -1.6354 -1.5697 -1.5839
C -1.6359 -1.5796 -1.5862
C -1.6384 -1.5793 -1.5845
C -1.6402 -1.5852 -1.5878
C -1.6358 -1.5801 -1.5955
C -1.6445 -1.5830 -1.5785
C -1.6439 -1.5959 -1.5931
C -1.6310 -1.5853 -1.5877
C -1.6272 -1.5877 -1.5891
C -1.6288 -1.5704 -1.5857
C -1.6295 -1.5736 -1.5875
C -1.6235 -1.5639 -1.5838
C -1.6235 -1.5617 -1.5829
C -1.6209 -1.5638 -1.5863
C -1.6229 -1.5677 -1.5875
C -1.6184 -1.5624 -1.5884
C -1.6197 -1.5620 -1.5840
C -1.6211 -1.5561 -1.5813
C -1.6165 -1.5674 -1.5850
C -1.6147 -1.5720 -1.5874
C -1.6156 -1.5668 -1.5838
C -1.6178 -1.5642 -1.5821
C -1.6165 -1.5714 -1.5851
C -1.6119 -1.5750 -1.5777
C -1.6224 -1.5600 -1.5862
C -1.6213 -1.5531 -1.5916
C -1.6229 -1.5601 -1.5788
C -1.6268 -1.5588 -1.5870
C -1.6162 -1.5821 -1.5942
C -1.6121 -1.5887 -1.5952
C -1.6107 -1.5639 -1.5827
C -1.6075 -1.5656 -1.5855
C -1.6099 -1.5601 -1.5792
C -1.6138 -1.5602 -1.5767
C -1.6051 -1.5560 -1.5779
C -1.6027 -1.5543 -1.5779
C -1.6061 -1.5504 -1.5743
C -1.6093 -1.5515 -1.5720
C -1.6026 -1.5455 -1.5773
C -1.6095 -1.5469 -1.5722
C -1.6162 -1.5478 -1.5758
C -1.6210 -1.5514 -1.5814
C -1.6164 -1.5434 -1.5717
C -1.6199 -1.5431 -1.5741
C -1.6116 -1.5400 -1.5643
C -1.6110 -1.5357 -1.5576
C -1.6164 -1.5346 -1.5582
C -1.6038 -1.5325 -1.5505
C -1.6036 -1.5284 -1.5453
C -1.5967 -1.5341 -1.5508
C -1.5903 -1.5320 -1.5456
C -1.5975 -1.5386 -1.5580
C -1.5930 -1.5399 -1.5578
C -1.6059 -1.5415 -1.5646
C -1.6010 -1.5588 -1.5794
C -1.6028 -1.5616 -1.5780
C -1.5964 -1.5576 -1.5811
C -1.5948 -1.5550 -1.5795
C -1.5914 -1.5596 -1.5821
C -1.5872 -1.5568 -1.5838
C -1.5893 -1.5586 -1.5808
C -1.5933 -1.5667 -1.5822
C -1.5954 -1.5689 -1.5830
C -1.5944 -1.5688 -1.5820
138
REAL frame=75
C -1.6048 -1.5725 -1.5791
C -1.6044 -1.5688 -1.5790
C -1.6029 -1.5721 -1.5825
C -1.6050 -1.5733 -1.5773
C -1.6054 -1.5761 -1.5804
C -1.6033 -1.5776 -1.5824
C -1.6076 -1.5777 -1.5778
C -1.6064 -1.5757 -1.5810
C -1.6103 -1.5775 -1.5795
C -1.6026 -1.5727 -1.5818
C -1.5989 -1.5698 -1.5821
C -1.6045 -1.5717 -1.5844
C -1.6073 -1.5679 -1.5832
C -1.6004 -1.5662 -1.5859
C -1.5985 -1.5584 -1.5834
C -1.5973 -1.5708 -1.5861
C -1.6036 -1.5646 -1.5902
C -1.6032 -1.5715 -1.5942
C -1.5990 -1.5790 -1.5945
C -1.6086 -1.5692 -1.5977
C -1.6083 -1.5744 -1.6008
C -1.6121 -1.5594 -1.5980
C -1.6156 -1.5574 -1.6019
C -1.6066 -1.5550 -1.5977
C -1.6105 -1.5522 -1.5939
C -1.6139 -1.5444 -1.5936
C -1.6066 -1.5548 -1.5905
C -1.6078 -1.5478 -1.5873
C -1.6066 -1.5772 -1.5868
C -1.6082 -1.5836 -1.5867
C -1.6063 -1.5751 -1.5890
C -1.6030 -1.5704 -1.5894
C -1.6068 -1.5785 -1.5926
C -1.6049 -1.5789 -1.5967
C -1.6105 -1.5841 -1.5943
C -1.6093 -1.5885 -1.5945
C -1.6107 -1.5889 -1.5964
C -1.6146 -1.5793 -1.5927
C -1.6125 -1.5753 -1.5934
C -1.6206 -1.5805 -1.5901
C -1.6076 -1.5762 -1.5908
C -1.6095 -1.5737 -1.5884
C -1.6084 -1.5763 -1.5913
C -1.6051 -1.5797 -1.5944
C -1.6076 -1.5814 -1.5979
C -1.6023 -1.5804 -1.5941
C -1.6039 -1.5782 -1.5945
C -1.6073 -1.5801 -1.5956
C -1.6001 -1.5793 -1.5957
C -1.6049 -1.5737 -1.5907
C -1.6067 -1.5733 -1.5904
C -1.6007 -1.5719 -1.5895
C -1.6092 -1.5730 -1.5892
C -1.6079 -1.5698 -1.5873
C -1.6153 -1.5737 -1.5880
C -1.6184 -1.5718 -1.5887
C -1.6182 -1.5773 -1.5887
C -1.6166 -1.5794 -1.5907
C -1.6255 -1.5795 -1.5899
C -1.6274 -1.5781 -1.5902
C -1.6257 -1.5877 -1.5939
C -1.6246 -1.5894 -1.5935
C -1.6300 -1.5877 -1.5951
C -1.6199 -1.5922 -1.5965
C -1.6134 -1.5917 -1.5963
C -1.6217 -1.5992 -1.5989
C -1.6217 -1.5881 -1.5954
C -1.6163 -1.5842 -1.5958
C -1.6277 -1.5852 -1.5936
C -1.6315 -1.5755 -1.5880
C -1.6344 -1.5730 -1.5860
C -1.6304 -1.5756 -1.5872
C -1.6255 -1.5779 -1.5883
C -1.6324 -1.5734 -1.5857
C -1.6356 -1.5695 -1.5840
C -1.6359 -1.5796 -1.5861
C -1.6382 -1.5792 -1.5844
C -1.6402 -1.5852 -1.5877
C -1.6362 -1.5803 -1.5961
C -1.6445 -1.5830 -1.5785
C -1.6436 -1.5960 -1.5931
C -1.6310 -1.5854 -1.5877
C -1.6267 -1.5877 -1.5890
C -1.6287 -1.5704 -1.5855
C -1.6295 -1.5733 -1.5877
C -1.6236 -1.5639 -1.5838
C -1.6232 -1.5618 -1.5830
C -1.6209 -1.5640 -1.5861
C -1.6231 -1.5675 -1.5875
C -1.6188 -1.5621 -1.5889
C -1.6196 -1.5619 -1.5841
C -1.6210 -1.5560 -1.5814
C -1.6164 -1.5672 -1.5852
C -1.6144 -1.5719 -1.5876
C -1.6156 -1.5668 -1.5838
C -1.6178 -1.5645 -1.5818
C -1.6166 -1.5714 -1.5850
C -1.6121 -1.5751 -1.5778
C -1.6223 -1.5600 -1.5862
C -1.6212 -1.5531 -1.5919
C -1.6228 -1.5606 -1.5790
C -1.6268 -1.5587 -1.5871
C -1.6161 -1.5820 -1.5942
C -1.6125 -1.5882 -1.5960
C -1.6107 -1.5640 -1.5829
C -1.6076 -1.5656 -1.5857
C -1.6099 -1.5602 -1.5791
C -1.6131 -1.5593 -1.5768
C -1.6050 -1.5559 -1.5779
C -1.6029 -1.5543 -1.5783
C -1.6062 -1.5505 -1.5745
C -1.6088 -1.5518 -1.5718
C -1.6028 -1.5460 -1.5769
C -1.6095 -1.5469 -1.5722
C -1.6163 -1.5478 -1.5757
C -1.6210 -1.5517 -1.5812
C -1.6163 -1.5434 -1.5717
C -1.6202 -1.5432 -1.5738
C -1.6116 -1.5400 -1.5642
C -1.6109 -1.5357 -1.5577
C -1.6168 -1.5350 -1.5588
C -1.6038 -1.5326 -1.5507
C -1.6035 -1.5284 -1.5456
C -1.5967 -1.5341 -1.5506
C -1.5907 -1.5323 -1.5454
C -1.5976 -1.5386 -1.5581
C -1.5933 -1.5399 -1.5577
C -1.6059 -1.5415 -1.5647
C -1.6011 -1.5587 -1.5793
C -1.6028 -1.5614 -1.5779
C -1.5965 -1.5576 -1.5810
C -1.5946 -1.5553 -1.5794
C -1.5915 -1.5595 -1.5822
C -1.5873 -1.5570 -1.5837
C -1.5901 -1.5582 -1.5808
C -1.5933 -1.5667 -1.5823
C -1.5955 -1.5689 -1.5830
C -1.5944 -1.5687 -1.5819
138
REAL frame=76
C -1.6047 -1.5725 -1.5790
C -1.6049 -1.5692 -1.5790
C -1.6029 -1.5722 -1.5830
C -1.6047 -1.5731 -1.5770
C -1.6054 -1.5761 -1.5803
C -1.6029 -1.5774 -1.5821
C -1.6076 -1.5776 -1.5779
C -1.6065 -1.5757 -1.5810
C -1.6101 -1.5775 -1.5795
C -1.6026 -1.5727 -1.5817
C -1.5986 -1.5694 -1.5826
C -1.6046 -1.5715 -1.5844
C -1.6069 -1.5678 -1.5832
C -1.6003 -1.5661 -1.5859
C -1.5984 -1.5585 -1.5834
C -1.5968 -1.5706 -1.5860
C -1.6037 -1.5647 -1.5902
C -1.6032 -1.5717 -1.5942
C -1.5988 -1.5790 -1.5948
C -1.6085 -1.5691 -1.5978
C -1.6082 -1.5740 -1.6009
C -1.6120 -1.5595 -1.5979
C -1.6158 -1.5575 -1.6020
C -1.6069 -1.5548 -1.5974
C -1.6106 -1.5522 -1.5940
C -1.6137 -1.5443 -1.5940
C -1.6065 -1.5548 -1.5904
C -1.6078 -1.5483 -1.5871
C -1.6067 -1.5772 -1.5868
C -1.6082 -1.5836 -1.5868
C -1.6061 -1.5751 -1.5890
C -1.6027 -1.5703 -1.5896
C -1.6069 -1.5784 -1.5927
C -1.6042 -1.5782 -1.5970
C -1.6106 -1.5842 -1.5943
C -1.6091 -1.5887 -1.5949
C -1.6107 -1.5890 -1.5965
C -1.6147 -1.5792 -1.5927
C -1.6125 -1.5752 -1.5934
C -1.6205 -1.5804 -1.5901
C -1.6078 -1.5762 -1.5908
C -1.6095 -1.5736 -1.5883
C -1.6086 -1.5765 -1.5914
C -1.6050 -1.5796 -1.5945
C -1.6075 -1.5816 -1.5969
C -1.6023 -1.5803 -1.5941
C -1.6038 -1.5782 -1.5946
C -1.6071 -1.5798 -1.5956
C -1.6004 -1.5793 -1.5959
C -1.6050 -1.5736 -1.5907
C -1.6066 -1.5733 -1.5906
C -1.6010 -1.5725 -1.5895
C -1.6092 -1.5729 -1.5892
C -1.6080 -1.5694 -1.5871
C -1.6153 -1.5738 -1.5880
C -1.6184 -1.5718 -1.5886
C -1.6182 -1.5773 -1.5888
C -1.6163 -1.5794 -1.5905
C -1.6257 -1.5795 -1.5900
C -1.6274 -1.5780 -1.5901
C -1.6258 -1.5877 -1.5938
C -1.6247 -1.5894 -1.5936
C -1.6301 -1.5878 -1.5948
C -1.6200 -1.5921 -1.5964
C -1.6136 -1.5916 -1.5965
C -1.6218 -1.5990 -1.5989
C -1.6218 -1.5881 -1.5955
C -1.6162 -1.5842 -1.5957
C -1.6278 -1.5854 -1.5936
C -1.6315 -1.5754 -1.5879
C -1.6343 -1.5731 -1.5860
C -1.6304 -1.5755 -1.5871
C -1.6256 -1.5777 -1.5886
C -1.6325 -1.5733 -1.5856
C -1.6358 -1.5693 -1.5840
C -1.6357 -1.5797 -1.5859
C -1.6382 -1.5786 -1.5842
C -1.6403 -1.5852 -1.5877
C -1.6366 -1.5805 -1.5965
C -1.6445 -1.5831 -1.5784
C -1.6433 -1.5962 -1.5930
C -1.6310 -1.5855 -1.5877
C -1.6263 -1.5877 -1.5889
C -1.6287 -1.5703 -1.5855
C -1.6295 -1.5731 -1.5878
C -1.6236 -1.5639 -1.5837
C -1.6226 -1.5620 -1.5831
C -1.6210 -1.5642 -1.5859
C -1.6230 -1.5675 -1.5875
C -1.6193 -1.5619 -1.5895
C -1.6195 -1.5618 -1.5841
C -1.6208 -1.5559 -1.5814
C -1.6163 -1.5671 -1.5853
C -1.6142 -1.5718 -1.5878
C -1.6155 -1.5667 -1.5837
C -1.6178 -1.5648 -1.5815
C -1.6166 -1.5714 -1.5850
C -1.6126 -1.5753 -1.5778
C -1.6222 -1.5600 -1.5863
C -1.6211 -1.5532 -1.5922
C -1.6225 -1.5611 -1.5792
C -1.6268 -1.5586 -1.5873
C -1.6160 -1.5820 -1.5942
C -1.6127 -1.5878 -1.5965
C -1.6107 -1.5642 -1.5830
C -1.6076 -1.5656 -1.5859
C -1.6101 -1.5603 -1.5790
C -1.6123 -1.5586 -1.5769
C -1.6049 -1.5558 -1.5779
C -1.6032 -1.5544 -1.5787
C -1.6064 -1.5506 -1.5747
C -1.6082 -1.5524 -1.5717
C -1.6031 -1.5466 -1.5762
C -1.6095 -1.5469 -1.5722
C -1.6164 -1.5477 -1.5757
C -1.6210 -1.5517 -1.5812
C -1.6163 -1.5436 -1.5717
C -1.6206 -1.5432 -1.5735
C -1.6115 -1.5400 -1.5641
C -1.6109 -1.5357 -1.5577
C -1.6171 -1.5352 -1.5590
C -1.6038 -1.5327 -1.5508
C -1.6034 -1.5285 -1.5457
C -1.5967 -1.5341 -1.5505
C -1.5911 -1.5325 -1.5452
C -1.5976 -1.5386 -1.5581
C -1.5934 -1.5399 -1.5578
C -1.6059 -1.5416 -1.5648
C -1.6012 -1.5587 -1.5792
C -1.6028 -1.5613 -1.5779
C -1.5965 -1.5575 -1.5809
C -1.5944 -1.5556 -1.5795
C -1.5916 -1.5595 -1.5823
C -1.5874 -1.5571 -1.5836
C -1.5911 -1.5580 -1.5808
C -1.5933 -1.5667 -1.5824
C -1.5957 -1.5688 -1.5829
C -1.5944 -1.5686 -1.5818
138
REAL frame=77
C -1.6047 -1.5725 -1.5790
C -1.6053 -1.5698 -1.5788
C -1.6029 -1.5721 -1.5833
C -1.6046 -1.5729 -1.5766
C -1.6054 -1.5761 -1.5803
C -1.6026 -1.5773 -1.5816
C -1.6077 -1.5774 -1.5782
C -1.6065 -1.5758 -1.5810
C -1.6100 -1.5775 -1.5794
C -1.6026 -1.5726 -1.5817
C -1.5984 -1.5691 -1.5828
C -1.6046 -1.5714 -1.5843
C -1.6066 -1.5678 -1.5829
C -1.6002 -1.5660 -1.5859
C -1.5983 -1.5587 -1.5834
C -1.5963 -1.5704 -1.5860
C -1.6038 -1.5647 -1.5903
C -1.6033 -1.5718 -1.5942
C -1.5987 -1.5791 -1.5950
C -1.6084 -1.5690 -1.5979
C -1.6083 -1.5738 -1.6010
C -1.6118 -1.5596 -1.5978
C -1.6160 -1.5575 -1.6020
C -1.6073 -1.5547 -1.5969
C -1.6106 -1.5522 -1.5941
C -1.6136 -1.5443 -1.5942
C -1.6065 -1.5549 -1.5903
C -1.6077 -1.5489 -1.5869
C -1.6067 -1.5773 -1.5868
C -1.6081 -1.5837 -1.5868
C -1.6059 -1.5750 -1.5890
C -1.6025 -1.5702 -1.5897
C -1.6069 -1.5782 -1.5928
C -1.6034 -1.5777 -1.5972
C -1.6108 -1.5842 -1.5944
C -1.6089 -1.5887 -1.5952
C -1.6108 -1.5891 -1.5964
C -1.6148 -1.5791 -1.5927
C -1.6125 -1.5751 -1.5934
C -1.6204 -1.5803 -1.5901
C -1.6079 -1.5763 -1.5908
C -1.6095 -1.5735 -1.5882
C -1.6087 -1.5766 -1.5915
C -1.6050 -1.5795 -1.5946
C -1.6073 -1.5818 -1.5959
C -1.6021 -1.5801 -1.5942
C -1.6038 -1.5783 -1.5947
C -1.6070 -1.5796 -1.5956
C -1.6006 -1.5791 -1.5962
C -1.6051 -1.5735 -1.5907
C -1.6064 -1.5732 -1.5908
C -1.6013 -1.5729 -1.5896
C -1.6092 -1.5729 -1.5893
C -1.6082 -1.5690 -1.5869
C -1.6152 -1.5739 -1.5880
C -1.6184 -1.5717 -1.5885
C -1.6183 -1.5773 -1.5888
C -1.6160 -1.5793 -1.5903
C -1.6259 -1.5795 -1.5901
C -1.6276 -1.5779 -1.5901
C -1.6258 -1.5877 -1.5937
C -1.6248 -1.5895 -1.5936
C -1.6305 -1.5882 -1.5946
C -1.6201 -1.5920 -1.5964
C -1.6138 -1.5916 -1.5966
C -1.6219 -1.5989 -1.5990
C -1.6220 -1.5879 -1.5955
C -1.6162 -1.5843 -1.5956
C -1.6278 -1.5856 -1.5935
C -1.6315 -1.5753 -1.5878
C -1.6343 -1.5731 -1.5861
C -1.6304 -1.5754 -1.5871
C -1.6258 -1.5775 -1.5889
C -1.6327 -1.5732 -1.5855
C -1.6361 -1.5692 -1.5840
C -1.6355 -1.5799 -1.5858
C -1.6383 -1.5776 -1.5842
C -1.6404 -1.5852 -1.5877
C -1.6368 -1.5804 -1.5966
C -1.6445 -1.5834 -1.5781
C -1.6433 -1.5964 -1.5929
C -1.6311 -1.5856 -1.5878
C -1.6258 -1.5878 -1.5888
C -1.6286 -1.5702 -1.5855
C -1.6295 -1.5729 -1.5879
C -1.6236 -1.5639 -1.5837
C -1.6220 -1.5620 -1.5831
C -1.6212 -1.5643 -1.5858
C -1.6227 -1.5676 -1.5874
C -1.6197 -1.5618 -1.5899
C -1.6194 -1.5618 -1.5840
C -1.6207 -1.5558 -1.5815
C -1.6162 -1.5671 -1.5854
C -1.6141 -1.5718 -1.5879
C -1.6155 -1.5667 -1.5837
C -1.6176 -1.5650 -1.5813
C -1.6165 -1.5714 -1.5850
C -1.6131 -1.5754 -1.5777
C -1.6221 -1.5601 -1.5863
C -1.6210 -1.5533 -1.5925
C -1.6221 -1.5614 -1.5794
C -1.6269 -1.5583 -1.5877
C -1.6160 -1.5819 -1.5942
C -1.6126 -1.5874 -1.5967
C -1.6107 -1.5644 -1.5832
C -1.6077 -1.5656 -1.5860
C -1.6103 -1.5604 -1.5790
C -1.6116 -1.5581 -1.5771
C -1.6048 -1.5558 -1.5779
C -1.6034 -1.5545 -1.5791
C -1.6065 -1.5506 -1.5748
C -1.6076 -1.5532 -1.5718
C -1.6034 -1.5470 -1.5755
C -1.6095 -1.5469 -1.5721
C -1.6165 -1.5477 -1.5757
C -1.6209 -1.5514 -1.5813
C -1.6162 -1.5436 -1.5717
C -1.6211 -1.5433 -1.5732
C -1.6115 -1.5400 -1.5641
C -1.6110 -1.5357 -1.5578
C -1.6172 -1.5351 -1.5588
C -1.6039 -1.5328 -1.5509
C -1.6033 -1.5287 -1.5457
C -1.5968 -1.5341 -1.5504
C -1.5915 -1.5323 -1.5449
C -1.5977 -1.5385 -1.5580
C -1.5935 -1.5399 -1.5579
C -1.6058 -1.5417 -1.5648
C -1.6013 -1.5586 -1.5790
C -1.6028 -1.5612 -1.5778
C -1.5965 -1.5575 -1.5808
C -1.5944 -1.5556 -1.5797
C -1.5918 -1.5595 -1.5824
C -1.5874 -1.5572 -1.5835
C -1.5920 -1.5579 -1.5810
C -1.5933 -1.5666 -1.5826
C -1.5958 -1.5688 -1.5827
C -1.5943 -1.5685 -1.5816
138
REAL frame=78
C -1.6046 -1.5725 -1.5791
C -1.6054 -1.5703 -1.5783
C -1.6030 -1.5718 -1.5832
C -1.6047 -1.5727 -1.5763
C -1.6054 -1.5760 -1.5802
C -1.6023 -1.5772 -1.5812
C -1.6077 -1.5774 -1.5788
C -1.6065 -1.5758 -1.5809
C -1.6099 -1.5775 -1.5793
C -1.6026 -1.5725 -1.5817
C -1.5985 -1.5690 -1.5827
C -1.6046 -1.5713 -1.5842
C -1.6064 -1.5679 -1.5824
C -1.6001 -1.5660 -1.5859
C -1.5981 -1.5588 -1.5835
C -1.5957 -1.5703 -1.5860
C -1.6038 -1.5646 -1.5903
C -1.6034 -1.5719 -1.5943
C -1.5988 -1.5791 -1.5951
C -1.6082 -1.5690 -1.5979
C -1.6083 -1.5738 -1.6010
C -1.6117 -1.5596 -1.5977
C -1.6161 -1.5576 -1.6020
C -1.6077 -1.5547 -1.5963
C -1.6107 -1.5522 -1.5942
C -1.6134 -1.5444 -1.5943
C -1.6065 -1.5549 -1.5902
C -1.6073 -1.5495 -1.5868
C -1.6069 -1.5774 -1.5869
C -1.6081 -1.5836 -1.5869
C -1.6058 -1.5750 -1.5891
C -1.6025 -1.5702 -1.5897
C -1.6069 -1.5781 -1.5928
C -1.6026 -1.5776 -1.5972
C -1.6109 -1.5843 -1.5944
C -1.6088 -1.5884 -1.5953
C -1.6111 -1.5891 -1.5961
C -1.6148 -1.5791 -1.5927
C -1.6124 -1.5750 -1.5934
C -1.6203 -1.5802 -1.5902
C -1.6081 -1.5762 -1.5908
C -1.6095 -1.5734 -1.5882
C -1.6088 -1.5766 -1.5916
C -1.6051 -1.5793 -1.5947
C -1.6070 -1.5818 -1.5952
C -1.6018 -1.5796 -1.5944
C -1.6038 -1.5784 -1.5948
C -1.6069 -1.5795 -1.5956
C -1.6007 -1.5788 -1.5965
C -1.6051 -1.5734 -1.5907
C -1.6062 -1.5731 -1.5908
C -1.6014 -1.5730 -1.5897
C -1.6092 -1.5729 -1.5892
C -1.6083 -1.5687 -1.5868
C -1.6152 -1.5739 -1.5881
C -1.6184 -1.5717 -1.5883
C -1.6184 -1.5774 -1.5888
C -1.6158 -1.5792 -1.5899
C -1.6261 -1.5794 -1.5901
C -1.6278 -1.5777 -1.5899
C -1.6258 -1.5876 -1.5936
C -1.6250 -1.5894 -1.5936
C -1.6310 -1.5887 -1.5944
C -1.6203 -1.5920 -1.5963
C -1.6139 -1.5915 -1.5967
C -1.6220 -1.5988 -1.5991
C -1.6221 -1.5876 -1.5955
C -1.6161 -1.5843 -1.5956
C -1.6279 -1.5859 -1.5935
C -1.6314 -1.5754 -1.5877
C -1.6343 -1.5730 -1.5861
C -1.6303 -1.5753 -1.5872
C -1.6262 -1.5775 -1.5890
C -1.6328 -1.5731 -1.5853
C -1.6364 -1.5691 -1.5839
C -1.6354 -1.5800 -1.5856
C -1.6384 -1.5765 -1.5843
C -1.6405 -1.5851 -1.5878
C -1.6369 -1.5803 -1.5963
C -1.6443 -1.5837 -1.5777
C -1.6435 -1.5966 -1.5927
C -1.6311 -1.5856 -1.5879
C -1.6254 -1.5880 -1.5886
C -1.6285 -1.5700 -1.5856
C -1.6295 -1.5728 -1.5879
C -1.6236 -1.5639 -1.5836
C -1.6216 -1.5620 -1.5830
C -1.6213 -1.5643 -1.5858
C -1.6223 -1.5679 -1.5871
C -1.6199 -1.5618 -1.5902
C -1.6193 -1.5617 -1.5839
C -1.6206 -1.5556 -1.5815
C -1.6161 -1.5670 -1.5856
C -1.6141 -1.5718 -1.5880
C -1.6154 -1.5666 -1.5837
C -1.6173 -1.5649 -1.5813
C -1.6165 -1.5714 -1.5851
C -1.6137 -1.5756 -1.5774
C -1.6220 -1.5601 -1.5864
C -1.6210 -1.5534 -1.5926
C -1.6217 -1.5615 -1.5796
C -1.6271 -1.5580 -1.5882
C -1.6160 -1.5819 -1.5941
C -1.6122 -1.5870 -1.5965
C -1.6107 -1.5645 -1.5832
C -1.6077 -1.5656 -1.5862
C -1.6104 -1.5605 -1.5790
C -1.6111 -1.5576 -1.5775
C -1.6048 -1.5558 -1.5781
C -1.6035 -1.5545 -1.5793
C -1.6066 -1.5506 -1.5748
C -1.6072 -1.5540 -1.5722
C -1.6036 -1.5472 -1.5748
C -1.6095 -1.5470 -1.5720
C -1.6165 -1.5476 -1.5758
C -1.6208 -1.5509 -1.5815
C -1.6162 -1.5437 -1.5716
C -1.6215 -1.5434 -1.5731
C -1.6115 -1.5400 -1.5642
C -1.6110 -1.5356 -1.5578
C -1.6172 -1.5349 -1.5583
C -1.6039 -1.5328 -1.5509
C -1.6032 -1.5290 -1.5455
C -1.5968 -1.5342 -1.5503
C -1.5919 -1.5321 -1.5446
C -1.5977 -1.5385 -1.5579
C -1.5934 -1.5398 -1.5581
C -1.6058 -1.5419 -1.5649
C -1.6014 -1.5585 -1.5789
C -1.6028 -1.5612 -1.5778
C -1.5965 -1.5574 -1.5808
C -1.5945 -1.5554 -1.5798
C -1.5919 -1.5595 -1.5824
C -1.5875 -1.5572 -1.5833
C -1.5927 -1.5581 -1.5814
C -1.5933 -1.5664 -1.5828
C -1.5959 -1.5688 -1.5826
C -1.5943 -1.5684 -1.5815
138
REAL frame=79
C -1.6046 -1.5725 -1.5792
C -1.6052 -1.5707 -1.5777
C -1.6030 -1.5712 -1.5829
C -1.6048 -1.5726 -1.5763
C -1.6054 -1.5760 -1.5801
C -1.6022 -1.5771 -1.5810
C -1.6077 -1.5774 -1.5795
C -1.6065 -1.5760 -1.5807
C -1.6098 -1.5775 -1.5793
C -1.6026 -1.5723 -1.5818
C -1.5987 -1.5692 -1.5825
C -1.6046 -1.5711 -1.5840
C -1.6063 -1.5681 -1.5819
C -1.6001 -1.5661 -1.5858
C -1.5979 -1.5588 -1.5835
C -1.5954 -1.5701 -1.5861
C -1.6038 -1.5645 -1.5903
C -1.6035 -1.5719 -1.5944
C -1.5991 -1.5792 -1.5951
C -1.6080 -1.5691 -1.5980
C -1.6084 -1.5740 -1.6010
C -1.6116 -1.5596 -1.5977
C -1.6163 -1.5577 -1.6020
C -1.6081 -1.5547 -1.5958
C -1.6107 -1.5523 -1.5942
C -1.6132 -1.5446 -1.5942
C -1.6065 -1.5549 -1.5901
C -1.6068 -1.5499 -1.5868
C -1.6070 -1.5775 -1.5869
C -1.6080 -1.5836 -1.5869
C -1.6056 -1.5750 -1.5892
C -1.6025 -1.5702 -1.5897
C -1.6068 -1.5781 -1.5929
C -1.6020 -1.5778 -1.5970
C -1.6110 -1.5844 -1.5945
C -1.6087 -1.5880 -1.5953
C -1.6113 -1.5891 -1.5957
C -1.6148 -1.5792 -1.5928
C -1.6124 -1.5749 -1.5933
C -1.6203 -1.5801 -1.5902
C -1.6082 -1.5761 -1.5908
C -1.6096 -1.5733 -1.5882
C -1.6087 -1.5766 -1.5916
C -1.6051 -1.5792 -1.5948
C -1.6069 -1.5819 -1.5948
C -1.6014 -1.5790 -1.5947
C -1.6039 -1.5785 -1.5948
C -1.6070 -1.5797 -1.5957
C -1.6006 -1.5785 -1.5967
C -1.6051 -1.5734 -1.5908
C -1.6059 -1.5730 -1.5908
C -1.6014 -1.5729 -1.5898
C -1.6092 -1.5730 -1.5892
C -1.6085 -1.5686 -1.5866
C -1.6152 -1.5738 -1.5883
C -1.6183 -1.5718 -1.5882
C -1.6185 -1.5774 -1.5889
C -1.6157 -1.5791 -1.5894
C -1.6263 -1.5793 -1.5901
C -1.6282 -1.5776 -1.5898
C -1.6259 -1.5876 -1.5935
C -1.6252 -1.5894 -1.5936
C -1.6315 -1.5893 -1.5943
C -1.6205 -1.5919 -1.5963
C -1.6140 -1.5913 -1.5967
C -1.6222 -1.5988 -1.5991
C -1.6222 -1.5873 -1.5955
C -1.6160 -1.5844 -1.5955
C -1.6280 -1.5861 -1.5935
C -1.6313 -1.5756 -1.5877
C -1.6344 -1.5728 -1.5861
C -1.6302 -1.5753 -1.5872
C -1.6265 -1.5776 -1.5889
C -1.6330 -1.5731 -1.5851
C -1.6367 -1.5690 -1.5836
C -1.6352 -1.5802 -1.5855
C -1.6384 -1.5755 -1.5845
C -1.6406 -1.5851 -1.5878
C -1.6369 -1.5800 -1.5958
C -1.6441 -1.5839 -1.5774
C -1.6440 -1.5967 -1.5926
C -1.6310 -1.5856 -1.5879
C -1.6251 -1.5883 -1.5885
C -1.6284 -1.5696 -1.5858
C -1.6296 -1.5727 -1.5878
C -1.6235 -1.5639 -1.5836
C -1.6213 -1.5619 -1.5828
C -1.6215 -1.5643 -1.5858
C -1.6220 -1.5684 -1.5868
C -1.6199 -1.5619 -1.5901
C -1.6192 -1.5617 -1.5838
C -1.6204 -1.5555 -1.5816
C -1.6160 -1.5670 -1.5856
C -1.6142 -1.5718 -1.5879
C -1.6152 -1.5665 -1.5837
C -1.6169 -1.5648 -1.5814
C -1.6164 -1.5715 -1.5851
C -1.6141 -1.5756 -1.5771
C -1.6220 -1.5602 -1.5864
C -1.6208 -1.5535 -1.5927
C -1.6215 -1.5614 -1.5797
C -1.6272 -1.5578 -1.5887
C -1.6161 -1.5818 -1.5941
C -1.6115 -1.5868 -1.5959
C -1.6108 -1.5646 -1.5832
C -1.6077 -1.5656 -1.5863
C -1.6105 -1.5605 -1.5790
C -1.6111 -1.5573 -1.5780
C -1.6048 -1.5559 -1.5782
C -1.6034 -1.5546 -1.5793
C -1.6067 -1.5506 -1.5748
C -1.6072 -1.5547 -1.5727
C -1.6037 -1.5471 -1.5745
C -1.6095 -1.5471 -1.5719
C -1.6166 -1.5476 -1.5759
C -1.6207 -1.5502 -1.5817
C -1.6162 -1.5437 -1.5716
C -1.6218 -1.5436 -1.5731
C -1.6114 -1.5401 -1.5644
C -1.6111 -1.5356 -1.5579
C -1.6170 -1.5346 -1.5576
C -1.6039 -1.5328 -1.5509
C -1.6033 -1.5293 -1.5452
C -1.5969 -1.5343 -1.5503
C -1.5923 -1.5317 -1.5444
C -1.5978 -1.5384 -1.5577
C -1.5933 -1.5398 -1.5582
C -1.6056 -1.5421 -1.5648
C -1.6015 -1.5584 -1.5789
C -1.6029 -1.5611 -1.5777
C -1.5964 -1.5574 -1.5807
C -1.5947 -1.5551 -1.5800
C -1.5921 -1.5594 -1.5824
C -1.5877 -1.5572 -1.5830
C -1.5933 -1.5584 -1.5817
C -1.5933 -1.5663 -1.5829
C -1.5960 -1.5687 -1.5825
C -1.5943 -1.5684 -1.5814
138
REAL frame=80
C -1.6045 -1.5724 -1.5793
C -1.6050 -1.5709 -1.5772
C -1.6031 -1.5707 -1.5823
C -1.6049 -1.5726 -1.5765
C -1.6054 -1.5759 -1.5801
C -1.6022 -1.5771 -1.5809
C -1.6076 -1.5776 -1.5801
C -1.6064 -1.5761 -1.5806
C -1.6097 -1.5775 -1.5792
C -1.6026 -1.5722 -1.5820
C -1.5990 -1.5694 -1.5821
C -1.6045 -1.5710 -1.5839
C -1.6064 -1.5683 -1.5813
C -1.6000 -1.5661 -1.5858
C -1.5979 -1.5587 -1.5835
C -1.5952 -1.5701 -1.5861
C -1.6037 -1.5643 -1.5903
C -1.6035 -1.5719 -1.5946
C -1.5996 -1.5793 -1.5950
C -1.6079 -1.5692 -1.5980
C -1.6084 -1.5743 -1.6010
C -1.6115 -1.5596 -1.5978
C -1.6164 -1.5578 -1.6020
C -1.6086 -1.5546 -1.5952
C -1.6107 -1.5524 -1.5941
C -1.6131 -1.5448 -1.5941
C -1.6066 -1.5549 -1.5901
C -1.6061 -1.5501 -1.5870
C -1.6071 -1.5776 -1.5870
C -1.6080 -1.5835 -1.5870
C -1.6056 -1.5750 -1.5894
C -1.6025 -1.5703 -1.5896
C -1.6067 -1.5782 -1.5929
C -1.6016 -1.5782 -1.5968
C -1.6110 -1.5844 -1.5945
C -1.6088 -1.5876 -1.5951
C -1.6117 -1.5890 -1.5954
C -1.6148 -1.5793 -1.5929
C -1.6124 -1.5748 -1.5933
C -1.6203 -1.5799 -1.5903
C -1.6084 -1.5759 -1.5907
C -1.6096 -1.5733 -1.5882
C -1.6086 -1.5764 -1.5917
C -1.6052 -1.5791 -1.5949
C -1.6069 -1.5819 -1.5949
C -1.6010 -1.5784 -1.5950
C -1.6040 -1.5786 -1.5948
C -1.6072 -1.5800 -1.5958
C -1.6004 -1.5782 -1.5968
C -1.6051 -1.5735 -1.5909
C -1.6057 -1.5729 -1.5906
C -1.6012 -1.5726 -1.5898
C -1.6093 -1.5731 -1.5891
C -1.6086 -1.5687 -1.5864
C -1.6152 -1.5737 -1.5884
C -1.6183 -1.5718 -1.5880
C -1.6186 -1.5775 -1.5889
C -1.6157 -1.5789 -1.5888
C -1.6263 -1.5792 -1.5900
C -1.6286 -1.5774 -1.5897
C -1.6260 -1.5875 -1.5935
C -1.6253 -1.5894 -1.5935
C -1.6319 -1.5899 -1.5943
C -1.6207 -1.5919 -1.5962
C -1.6140 -1.5912 -1.5967
C -1.6224 -1.5989 -1.5990
C -1.6222 -1.5872 -1.5955
C -1.6160 -1.5845 -1.5955
C -1.6281 -1.5862 -1.5934
C -1.6312 -1.5758 -1.5876
C -1.6344 -1.5726 -1.5862
C -1.6301 -1.5752 -1.5873
C -1.6269 -1.5777 -1.5887
C -1.6331 -1.5730 -1.5850
C -1.6371 -1.5690 -1.5832
C -1.6352 -1.5802 -1.5854
C -1.6385 -1.5750 -1.5847
C -1.6406 -1.5852 -1.5879
C -1.6369 -1.5798 -1.5951
C -1.6440 -1.5842 -1.5772
C -1.6446 -1.5967 -1.5925
C -1.6310 -1.5857 -1.5879
C -1.6249 -1.5885 -1.5884
C -1.6285 -1.5693 -1.5859
C -1.6297 -1.5727 -1.5877
C -1.6234 -1.5639 -1.5837
C -1.6212 -1.5615 -1.5826
C -1.6216 -1.5642 -1.5860
C -1.6217 -1.5687 -1.5864
C -1.6198 -1.5621 -1.5898
C -1.6190 -1.5616 -1.5837
C -1.6203 -1.5554 -1.5816
C -1.6159 -1.5670 -1.5856
C -1.6143 -1.5718 -1.5879
C -1.6151 -1.5665 -1.5838
C -1.6166 -1.5645 -1.5817
C -1.6163 -1.5716 -1.5852
C -1.6142 -1.5757 -1.5769
C -1.6219 -1.5603 -1.5865
C -1.6207 -1.5535 -1.5926
C -1.6214 -1.5613 -1.5798
C -1.6272 -1.5576 -1.5891
C -1.6161 -1.5817 -1.5941
C -1.6109 -1.5865 -1.5952
C -1.6108 -1.5646 -1.5832
C -1.6077 -1.5656 -1.5864
C -1.6105 -1.5606 -1.5791
C -1.6114 -1.5570 -1.5785
C -1.6050 -1.5560 -1.5784
C -1.6033 -1.5547 -1.5793
C -1.6067 -1.5506 -1.5747
C -1.6076 -1.5550 -1.5731
C -1.6036 -1.5468 -1.5744
C -1.6095 -1.5472 -1.5719
C -1.6167 -1.5476 -1.5760
C -1.6206 -1.5496 -1.5819
C -1.6163 -1.5437 -1.5716
C -1.6221 -1.5437 -1.5731
C -1.6114 -1.5403 -1.5646
C -1.6112 -1.5355 -1.5579
C -1.6167 -1.5344 -1.5570
C -1.6039 -1.5329 -1.5509
C -1.6033 -1.5296 -1.5450
C -1.5970 -1.5343 -1.5504
C -1.5925 -1.5314 -1.5443
C -1.5979 -1.5385 -1.5576
C -1.5931 -1.5398 -1.5581
C -1.6055 -1.5422 -1.5647
C -1.6014 -1.5583 -1.5788
C -1.6030 -1.5611 -1.5776
C -1.5964 -1.5573 -1.5807
C -1.5949 -1.5547 -1.5803
C -1.5923 -1.5594 -1.5823
C -1.5878 -1.5573 -1.5826
C -1.5936 -1.5588 -1.5820
C -1.5934 -1.5663 -1.5830
C -1.5961 -1.5686 -1.5825
C -1.5942 -1.5683 -1.5813
138
REAL frame=81
C -1.6055 -1.5734 -1.5804
C -1.6057 -1.5720 -1.5779
C -1.6043 -1.5712 -1.5827
C -1.6060 -1.5740 -1.5781
C -1.6064 -1.5770 -1.5811
C -1.6034 -1.5782 -1.5821
C -1.6085 -1.5789 -1.5816
C -1.6073 -1.5772 -1.5815
C -1.6107 -1.5785 -1.5803
C -1.6036 -1.5732 -1.5831
C -1.6002 -1.5705 -1.5829
C -1.6054 -1.5720 -1.5848
C -1.6077 -1.5695 -1.5821
C -1.6010 -1.5672 -1.5868
C -1.5989 -1.5597 -1.5845
C -1.5964 -1.5712 -1.5872
C -1.6047 -1.5652 -1.5915
C -1.6047 -1.5730 -1.5958
C -1.6013 -1.5804 -1.5958
C -1.6088 -1.5704 -1.5991
C -1.6095 -1.5757 -1.6020
C -1.6126 -1.5607 -1.5989
C -1.6176 -1.5590 -1.6030
C -1.6103 -1.5555 -1.5958
C -1.6118 -1.5536 -1.5951
C -1.6141 -1.5461 -1.5950
C -1.6078 -1.5560 -1.5912
C -1.6066 -1.5511 -1.5883
C -1.6081 -1.5786 -1.5880
C -1.6090 -1.5845 -1.5881
C -1.6066 -1.5761 -1.5907
C -1.6037 -1.5716 -1.5906
C -1.6076 -1.5794 -1.5940
C -1.6026 -1.5798 -1.5977
C -1.6121 -1.5856 -1.5956
C -1.6100 -1.5884 -1.5958
C -1.6130 -1.5900 -1.5963
C -1.6158 -1.5805 -1.5940
C -1.6134 -1.5759 -1.5944
C -1.6214 -1.5809 -1.5914
C -1.6096 -1.5767 -1.5918
C -1.6107 -1.5744 -1.5893
C -1.6095 -1.5774 -1.5927
C -1.6063 -1.5801 -1.5960
C -1.6081 -1.5830 -1.5966
C -1.6017 -1.5789 -1.5963
C -1.6052 -1.5797 -1.5959
C -1.6085 -1.5815 -1.5969
C -1.6013 -1.5792 -1.5978
C -1.6062 -1.5747 -1.5920
C -1.6067 -1.5740 -1.5915
C -1.6021 -1.5732 -1.5909
C -1.6104 -1.5743 -1.5901
C -1.6097 -1.5702 -1.5874
C -1.6164 -1.5748 -1.5896
C -1.6193 -1.5729 -1.5889
C -1.6197 -1.5786 -1.5899
C -1.6169 -1.5797 -1.5894
C -1.6274 -1.5803 -1.5910
C -1.6300 -1.5785 -1.5906
C -1.6272 -1.5887 -1.5945
C -1.6262 -1.5905 -1.5945
C -1.6333 -1.5913 -1.5953
C -1.6219 -1.5929 -1.5973
C -1.6152 -1.5921 -1.5977
C -1.6236 -1.6001 -1.5999
C -1.6232 -1.5883 -1.5967
C -1.6170 -1.5856 -1.5965
C -1.6293 -1.5874 -1.5945
C -1.6322 -1.5770 -1.5888
C -1.6354 -1.5736 -1.5873
C -1.6311 -1.5764 -1.5884
C -1.6283 -1.5790 -1.5895
C -1.6342 -1.5741 -1.5861
C -1.6385 -1.5702 -1.5839
C -1.6363 -1.5813 -1.5865
C -1.6395 -1.5761 -1.5858
C -1.6416 -1.5864 -1.5891
C -1.6379 -1.5807 -1.5955
C -1.6449 -1.5854 -1.5783
C -1.6463 -1.5976 -1.5937
C -1.6319 -1.5868 -1.5891
C -1.6257 -1.5897 -1.5894
C -1.6296 -1.5702 -1.5871
C -1.6308 -1.5738 -1.5887
C -1.6243 -1.5650 -1.5849
C -1.6223 -1.5623 -1.5836
C -1.6227 -1.5653 -1.5872
C -1.6228 -1.5701 -1.5874
C -1.6207 -1.5634 -1.5906
C -1.6200 -1.5627 -1.5848
C -1.6212 -1.5564 -1.5828
C -1.6169 -1.5682 -1.5867
C -1.6155 -1.5727 -1.5889
C -1.6160 -1.5677 -1.5850
C -1.6173 -1.5653 -1.5832
C -1.6173 -1.5728 -1.5864
C -1.6151 -1.5768 -1.5780
C -1.6229 -1.5614 -1.5877
C -1.6215 -1.5546 -1.5936
C -1.6225 -1.5622 -1.5809
C -1.6282 -1.5586 -1.5904
C -1.6171 -1.5828 -1.5952
C -1.6115 -1.5875 -1.5957
C -1.6119 -1.5657 -1.5843
C -1.6088 -1.5666 -1.5876
C -1.6116 -1.5617 -1.5803
C -1.6130 -1.5581 -1.5801
C -1.6062 -1.5571 -1.5798
C -1.6041 -1.5558 -1.5803
C -1.6078 -1.5517 -1.5757
C -1.6093 -1.5560 -1.5745
C -1.6045 -1.5474 -1.5758
C -1.6106 -1.5484 -1.5731
C -1.6178 -1.5487 -1.5773
C -1.6216 -1.5504 -1.5831
C -1.6174 -1.5449 -1.5728
C -1.6233 -1.5449 -1.5743
C -1.6124 -1.5415 -1.5659
C -1.6123 -1.5366 -1.5591
C -1.6173 -1.5353 -1.5578
C -1.6049 -1.5340 -1.5520
C -1.6045 -1.5309 -1.5461
C -1.5981 -1.5354 -1.5517
C -1.5935 -1.5325 -1.5456
C -1.5991 -1.5397 -1.5587
C -1.5940 -1.5409 -1.5590
C -1.6065 -1.5434 -1.5657
C -1.6024 -1.5593 -1.5800
C -1.6042 -1.5622 -1.5787
C -1.5974 -1.5583 -1.5818
C -1.5963 -1.5554 -1.5817
C -1.5935 -1.5605 -1.5833
C -1.5889 -1.5586 -1.5833
C -1.5947 -1.5602 -1.5833
C -1.5945 -1.5674 -1.5840
C -1.5973 -1.5696 -1.5837
C -1.5952 -1.5693 -1.5823
138
REAL frame=82
C -1.6055 -1.5733 -1.5804
C -1.6056 -1.5719 -1.5777
C -1.6044 -1.5708 -1.5821
C -1.6058 -1.5743 -1.5789
C -1.6064 -1.5770 -1.5812
C -1.6035 -1.5782 -1.5824
C -1.6084 -1.5792 -1.5817
C -1.6071 -1.5771 -1.5814
C -1.6107 -1.5786 -1.5802
C -1.6037 -1.5731 -1.5832
C -1.6003 -1.5705 -1.5828
C -1.6053 -1.5720 -1.5847
C -1.6080 -1.5695 -1.5820
C -1.6009 -1.5673 -1.5868
C -1.5989 -1.5596 -1.5845
C -1.5967 -1.5714 -1.5872
C -1.6046 -1.5651 -1.5915
C -1.6047 -1.5729 -1.5959
C -1.6020 -1.5803 -1.5956
C -1.6086 -1.5706 -1.5991
C -1.6094 -1.5760 -1.6019
C -1.6126 -1.5607 -1.5990
C -1.6177 -1.5590 -1.6029
C -1.6109 -1.5552 -1.5955
C -1.6118 -1.5537 -1.5949
C -1.6140 -1.5462 -1.5947
C -1.6079 -1.5559 -1.5912
C -1.6060 -1.5508 -1.5885
C -1.6081 -1.5785 -1.5880
C -1.6090 -1.5845 -1.5882
C -1.6066 -1.5761 -1.5909
C -1.6038 -1.5718 -1.5905
C -1.6074 -1.5796 -1.5940
C -1.6029 -1.5802 -1.5976
C -1.6120 -1.5856 -1.5956
C -1.6103 -1.5881 -1.5953
C -1.6134 -1.5899 -1.5963
C -1.6157 -1.5806 -1.5940
C -1.6134 -1.5758 -1.5944
C -1.6214 -1.5808 -1.5915
C -1.6098 -1.5765 -1.5917
C -1.6108 -1.5744 -1.5893
C -1.6094 -1.5772 -1.5927
C -1.6063 -1.5800 -1.5961
C -1.6082 -1.5831 -1.5976
C -1.6015 -1.5785 -1.5965
C -1.6053 -1.5797 -1.5960
C -1.6088 -1.5820 -1.5971
C -1.6010 -1.5794 -1.5976
C -1.6061 -1.5749 -1.5921
C -1.6068 -1.5740 -1.5912
C -1.6018 -1.5727 -1.5910
C -1.6104 -1.5744 -1.5901
C -1.6096 -1.5707 -1.5873
C -1.6166 -1.5749 -1.5897
C -1.6193 -1.5728 -1.5887
C -1.6198 -1.5785 -1.5900
C -1.6170 -1.5794 -1.5890
C -1.6274 -1.5802 -1.5909
C -1.6303 -1.5784 -1.5905
C -1.6274 -1.5887 -1.5945
C -1.6260 -1.5906 -1.5944
C -1.6335 -1.5914 -1.5952
C -1.6221 -1.5928 -1.5973
C -1.6153 -1.5920 -1.5975
C -1.6237 -1.6003 -1.5998
C -1.6231 -1.5886 -1.5967
C -1.6170 -1.5857 -1.5964
C -1.6294 -1.5872 -1.5944
C -1.6321 -1.5769 -1.5888
C -1.6355 -1.5735 -1.5874
C -1.6310 -1.5764 -1.5883
C -1.6286 -1.5791 -1.5892
C -1.6342 -1.5740 -1.5862
C -1.6388 -1.5703 -1.5835
C -1.6365 -1.5813 -1.5866
C -1.6396 -1.5766 -1.5857
C -1.6416 -1.5865 -1.5891
C -1.6379 -1.5806 -1.5947
C -1.6448 -1.5854 -1.5782
C -1.6469 -1.5972 -1.5937
C -1.6318 -1.5869 -1.5890
C -1.6256 -1.5897 -1.5894
C -1.6297 -1.5700 -1.5870
C -1.6308 -1.5737 -1.5886
C -1.6242 -1.5649 -1.5851
C -1.6224 -1.5618 -1.5834
C -1.6226 -1.5654 -1.5873
C -1.6230 -1.5701 -1.5875
C -1.6205 -1.5635 -1.5902
C -1.6200 -1.5627 -1.5848
C -1.6210 -1.5562 -1.5828
C -1.6167 -1.5683 -1.5866
C -1.6157 -1.5725 -1.5887
C -1.6159 -1.5677 -1.5851
C -1.6171 -1.5650 -1.5835
C -1.6173 -1.5729 -1.5865
C -1.6147 -1.5768 -1.5780
C -1.6229 -1.5615 -1.5878
C -1.6212 -1.5545 -1.5935
C -1.6228 -1.5620 -1.5808
C -1.6282 -1.5587 -1.5904
C -1.6171 -1.5827 -1.5952
C -1.6113 -1.5874 -1.5953
C -1.6119 -1.5657 -1.5843
C -1.6088 -1.5666 -1.5877
C -1.6116 -1.5618 -1.5805
C -1.6135 -1.5583 -1.5804
C -1.6064 -1.5571 -1.5799
C -1.6040 -1.5559 -1.5801
C -1.6078 -1.5518 -1.5756
C -1.6101 -1.5554 -1.5745
C -1.6043 -1.5468 -1.5763
C -1.6106 -1.5484 -1.5732
C -1.6178 -1.5488 -1.5773
C -1.6216 -1.5504 -1.5832
C -1.6175 -1.5448 -1.5729
C -1.6234 -1.5448 -1.5743
C -1.6123 -1.5417 -1.5660
C -1.6124 -1.5366 -1.5590
C -1.6169 -1.5351 -1.5577
C -1.6049 -1.5340 -1.5519
C -1.6047 -1.5309 -1.5460
C -1.5982 -1.5354 -1.5517
C -1.5934 -1.5326 -1.5458
C -1.5991 -1.5398 -1.5585
C -1.5939 -1.5409 -1.5585
C -1.6063 -1.5434 -1.5656
C -1.6023 -1.5594 -1.5800
C -1.6043 -1.5622 -1.5786
C -1.5974 -1.5581 -1.5817
C -1.5965 -1.5553 -1.5822
C -1.5937 -1.5605 -1.5832
C -1.5891 -1.5588 -1.5829
C -1.5945 -1.5603 -1.5831
C -1.5945 -1.5674 -1.5839
C -1.5974 -1.5694 -1.5838
C -1.5952 -1.5693 -1.5823
138
REAL frame=83
C -1.6055 -1.5732 -1.5803
C -1.6057 -1.5718 -1.5777
C -1.6045 -1.5706 -1.5818
C -1.6055 -1.5746 -1.5798
C -1.6064 -1.5770 -1.5812
C -1.6036 -1.5782 -1.5827
C -1.6083 -1.5795 -1.5816
C -1.6069 -1.5770 -1.5813
C -1.6106 -1.5787 -1.5801
C -1.6038 -1.5732 -1.5832
C -1.6001 -1.5702 -1.5830
C -1.6052 -1.5719 -1.5846
C -1.6082 -1.5694 -1.5820
C -1.6009 -1.5672 -1.5868
C -1.5988 -1.5596 -1.5844
C -1.5972 -1.5716 -1.5871
C -1.6045 -1.5651 -1.5917
C -1.6047 -1.5728 -1.5959
C -1.6028 -1.5801 -1.5955
C -1.6085 -1.5708 -1.5991
C -1.6093 -1.5764 -1.6020
C -1.6126 -1.5609 -1.5991
C -1.6178 -1.5591 -1.6028
C -1.6116 -1.5549 -1.5953
C -1.6117 -1.5538 -1.5948
C -1.6139 -1.5464 -1.5944
C -1.6079 -1.5558 -1.5913
C -1.6056 -1.5504 -1.5888
C -1.6080 -1.5783 -1.5878
C -1.6091 -1.5844 -1.5882
C -1.6067 -1.5762 -1.5911
C -1.6041 -1.5718 -1.5904
C -1.6073 -1.5798 -1.5940
C -1.6033 -1.5805 -1.5977
C -1.6119 -1.5856 -1.5955
C -1.6105 -1.5881 -1.5950
C -1.6136 -1.5898 -1.5966
C -1.6157 -1.5806 -1.5940
C -1.6134 -1.5757 -1.5944
C -1.6214 -1.5808 -1.5916
C -1.6099 -1.5764 -1.5917
C -1.6108 -1.5744 -1.5893
C -1.6092 -1.5770 -1.5927
C -1.6063 -1.5800 -1.5961
C -1.6083 -1.5832 -1.5988
C -1.6014 -1.5783 -1.5967
C -1.6054 -1.5796 -1.5960
C -1.6091 -1.5825 -1.5973
C -1.6008 -1.5797 -1.5974
C -1.6061 -1.5751 -1.5921
C -1.6071 -1.5741 -1.5911
C -1.6016 -1.5723 -1.5910
C -1.6105 -1.5744 -1.5902
C -1.6096 -1.5712 -1.5874
C -1.6168 -1.5750 -1.5897
C -1.6192 -1.5727 -1.5886
C -1.6199 -1.5784 -1.5900
C -1.6171 -1.5791 -1.5886
C -1.6274 -1.5802 -1.5907
C -1.6304 -1.5784 -1.5904
C -1.6276 -1.5888 -1.5945
C -1.6257 -1.5907 -1.5943
C -1.6336 -1.5913 -1.5950
C -1.6223 -1.5928 -1.5973
C -1.6155 -1.5920 -1.5973
C -1.6239 -1.6004 -1.5996
C -1.6230 -1.5889 -1.5967
C -1.6170 -1.5857 -1.5964
C -1.6295 -1.5871 -1.5944
C -1.6319 -1.5767 -1.5889
C -1.6355 -1.5734 -1.5875
C -1.6310 -1.5765 -1.5882
C -1.6288 -1.5792 -1.5891
C -1.6342 -1.5739 -1.5863
C -1.6390 -1.5702 -1.5834
C -1.6367 -1.5812 -1.5867
C -1.6396 -1.5775 -1.5855
C -1.6415 -1.5866 -1.5890
C -1.6379 -1.5806 -1.5940
C -1.6447 -1.5854 -1.5782
C -1.6472 -1.5968 -1.5938
C -1.6317 -1.5869 -1.5890
C -1.6256 -1.5896 -1.5894
C -1.6298 -1.5700 -1.5868
C -1.6309 -1.5736 -1.5885
C -1.6241 -1.5648 -1.5852
C -1.6224 -1.5613 -1.5833
C -1.6225 -1.5654 -1.5874
C -1.6234 -1.5699 -1.5879
C -1.6203 -1.5636 -1.5900
C -1.6200 -1.5627 -1.5849
C -1.6209 -1.5561 -1.5827
C -1.6166 -1.5684 -1.5865
C -1.6159 -1.5723 -1.5885
C -1.6158 -1.5678 -1.5853
C -1.6171 -1.5648 -1.5839
C -1.6172 -1.5729 -1.5864
C -1.6141 -1.5768 -1.5783
C -1.6229 -1.5615 -1.5879
C -1.6209 -1.5544 -1.5933
C -1.6233 -1.5619 -1.5807
C -1.6282 -1.5588 -1.5902
C -1.6171 -1.5826 -1.5951
C -1.6113 -1.5875 -1.5952
C -1.6119 -1.5657 -1.5843
C -1.6088 -1.5666 -1.5877
C -1.6116 -1.5618 -1.5807
C -1.6140 -1.5586 -1.5804
C -1.6065 -1.5571 -1.5800
C -1.6040 -1.5559 -1.5800
C -1.6077 -1.5519 -1.5756
C -1.6108 -1.5545 -1.5743
C -1.6041 -1.5464 -1.5768
C -1.6107 -1.5484 -1.5733
C -1.6177 -1.5488 -1.5774
C -1.6217 -1.5508 -1.5832
C -1.6177 -1.5448 -1.5730
C -1.6235 -1.5447 -1.5743
C -1.6122 -1.5417 -1.5660
C -1.6124 -1.5367 -1.5589
C -1.6165 -1.5351 -1.5581
C -1.6049 -1.5340 -1.5519
C -1.6048 -1.5309 -1.5460
C -1.5984 -1.5353 -1.5517
C -1.5932 -1.5329 -1.5460
C -1.5992 -1.5400 -1.5584
C -1.5939 -1.5410 -1.5580
C -1.6063 -1.5434 -1.5655
C -1.6023 -1.5595 -1.5801
C -1.6044 -1.5622 -1.5786
C -1.5974 -1.5580 -1.5816
C -1.5966 -1.5552 -1.5826
C -1.5938 -1.5605 -1.5831
C -1.5892 -1.5591 -1.5826
C -1.5942 -1.5603 -1.5828
C -1.5946 -1.5674 -1.5838
C -1.5976 -1.5693 -1.5839
C -1.5952 -1.5693 -1.5823
138
REAL frame=84
C -1.6056 -1.5731 -1.5802
C -1.6060 -1.5718 -1.5778
C -1.6045 -1.5706 -1.5817
C -1.6051 -1.5747 -1.5805
C -1.6063 -1.5770 -1.5813
C -1.6036 -1.5781 -1.5830
C -1.6082 -1.5796 -1.5812
C -1.6068 -1.5768 -1.5813
C -1.6106 -1.5788 -1.5800
C -1.6038 -1.5733 -1.5832
C -1.5999 -1.5700 -1.5833
C -1.6052 -1.5719 -1.5845
C -1.6084 -1.5692 -1.5822
C -1.6008 -1.5672 -1.5868
C -1.5988 -1.5596 -1.5844
C -1.5977 -1.5717 -1.5870
C -1.6044 -1.5651 -1.5918
C -1.6048 -1.5728 -1.5958
C -1.6034 -1.5797 -1.5954
C -1.6083 -1.5709 -1.5992
C -1.6091 -1.5767 -1.6021
C -1.6125 -1.5611 -1.5992
C -1.6178 -1.5591 -1.6028
C -1.6124 -1.5546 -1.5950
C -1.6117 -1.5538 -1.5947
C -1.6139 -1.5466 -1.5941
C -1.6079 -1.5557 -1.5913
C -1.6055 -1.5500 -1.5890
C -1.6079 -1.5781 -1.5877
C -1.6091 -1.5843 -1.5883
C -1.6067 -1.5762 -1.5912
C -1.6045 -1.5717 -1.5905
C -1.6073 -1.5799 -1.5941
C -1.6039 -1.5807 -1.5979
C -1.6118 -1.5856 -1.5955
C -1.6106 -1.5881 -1.5947
C -1.6137 -1.5898 -1.5969
C -1.6158 -1.5805 -1.5939
C -1.6134 -1.5757 -1.5944
C -1.6214 -1.5808 -1.5918
C -1.6099 -1.5763 -1.5917
C -1.6109 -1.5744 -1.5893
C -1.6090 -1.5769 -1.5926
C -1.6063 -1.5799 -1.5961
C -1.6081 -1.5833 -1.5999
C -1.6015 -1.5783 -1.5968
C -1.6056 -1.5795 -1.5961
C -1.6094 -1.5828 -1.5975
C -1.6007 -1.5802 -1.5971
C -1.6060 -1.5752 -1.5921
C -1.6075 -1.5743 -1.5910
C -1.6015 -1.5720 -1.5911
C -1.6105 -1.5744 -1.5903
C -1.6095 -1.5715 -1.5875
C -1.6170 -1.5752 -1.5896
C -1.6191 -1.5726 -1.5885
C -1.6200 -1.5783 -1.5900
C -1.6171 -1.5789 -1.5885
C -1.6274 -1.5802 -1.5907
C -1.6303 -1.5784 -1.5904
C -1.6278 -1.5889 -1.5944
C -1.6255 -1.5908 -1.5943
C -1.6336 -1.5911 -1.5949
C -1.6225 -1.5927 -1.5973
C -1.6157 -1.5920 -1.5970
C -1.6241 -1.6004 -1.5996
C -1.6230 -1.5891 -1.5966
C -1.6170 -1.5858 -1.5964
C -1.6297 -1.5869 -1.5943
C -1.6318 -1.5765 -1.5889
C -1.6356 -1.5733 -1.5875
C -1.6309 -1.5766 -1.5881
C -1.6289 -1.5793 -1.5890
C -1.6342 -1.5738 -1.5864
C -1.6390 -1.5701 -1.5835
C -1.6369 -1.5811 -1.5869
C -1.6397 -1.5787 -1.5854
C -1.6415 -1.5867 -1.5889
C -1.6379 -1.5806 -1.5935
C -1.6447 -1.5854 -1.5781
C -1.6473 -1.5964 -1.5939
C -1.6316 -1.5869 -1.5889
C -1.6257 -1.5894 -1.5895
C -1.6298 -1.5700 -1.5866
C -1.6309 -1.5735 -1.5885
C -1.6242 -1.5646 -1.5854
C -1.6222 -1.5610 -1.5833
C -1.6222 -1.5655 -1.5874
C -1.6238 -1.5696 -1.5884
C -1.6200 -1.5637 -1.5899
C -1.6200 -1.5627 -1.5849
C -1.6207 -1.5560 -1.5827
C -1.6165 -1.5684 -1.5864
C -1.6161 -1.5721 -1.5882
C -1.6157 -1.5678 -1.5853
C -1.6172 -1.5648 -1.5840
C -1.6172 -1.5729 -1.5864
C -1.6136 -1.5768 -1.5787
C -1.6229 -1.5615 -1.5880
C -1.6207 -1.5544 -1.5933
C -1.6237 -1.5619 -1.5806
C -1.6281 -1.5589 -1.5900
C -1.6171 -1.5826 -1.5951
C -1.6116 -1.5877 -1.5956
C -1.6119 -1.5657 -1.5844
C -1.6088 -1.5666 -1.5876
C -1.6116 -1.5618 -1.5809
C -1.6142 -1.5591 -1.5800
C -1.6066 -1.5571 -1.5800
C -1.6041 -1.5558 -1.5801
C -1.6078 -1.5519 -1.5757
C -1.6112 -1.5535 -1.5739
C -1.6041 -1.5462 -1.5773
C -1.6107 -1.5484 -1.5734
C -1.6177 -1.5488 -1.5774
C -1.6219 -1.5515 -1.5832
C -1.6178 -1.5448 -1.5732
C -1.6235 -1.5446 -1.5743
C -1.6122 -1.5417 -1.5658
C -1.6123 -1.5368 -1.5588
C -1.6162 -1.5352 -1.5586
C -1.6049 -1.5340 -1.5518
C -1.6049 -1.5307 -1.5460
C -1.5985 -1.5353 -1.5518
C -1.5929 -1.5332 -1.5463
C -1.5992 -1.5402 -1.5583
C -1.5939 -1.5411 -1.5575
C -1.6062 -1.5434 -1.5655
C -1.6023 -1.5596 -1.5801
C -1.6044 -1.5622 -1.5786
C -1.5974 -1.5578 -1.5816
C -1.5967 -1.5553 -1.5831
C -1.5939 -1.5604 -1.5829
C -1.5893 -1.5592 -1.5824
C -1.5939 -1.5600 -1.5823
C -1.5947 -1.5673 -1.5837
C -1.5977 -1.5691 -1.5840
C -1.5952 -1.5693 -1.5822
138
REAL frame=85
C -1.6056 -1.5730 -1.5801
C -1.6064 -1.5719 -1.5780
C -1.6044 -1.5707 -1.5820
C -1.6047 -1.5746 -1.5809
C -1.6063 -1.5770 -1.5814
C -1.6036 -1.5780 -1.5834
C -1.6082 -1.5796 -1.5807
C -1.6067 -1.5765 -1.5812
C -1.6106 -1.5789 -1.5799
C -1.6038 -1.5735 -1.5833
C -1.5996 -1.5697 -1.5836
C -1.6052 -1.5719 -1.5846
C -1.6083 -1.5689 -1.5825
C -1.6007 -1.5671 -1.5869
C -1.5987 -1.5597 -1.5845
C -1.5982 -1.5718 -1.5868
C -1.6043 -1.5653 -1.5919
C -1.6048 -1.5728 -1.5956
C -1.6039 -1.5794 -1.5954
C -1.6082 -1.5710 -1.5994
C -1.6090 -1.5768 -1.6022
C -1.6125 -1.5613 -1.5991
C -1.6179 -1.5591 -1.6027
C -1.6131 -1.5543 -1.5948
C -1.6117 -1.5538 -1.5948
C -1.6139 -1.5466 -1.5939
C -1.6079 -1.5556 -1.5914
C -1.6055 -1.5497 -1.5890
C -1.6078 -1.5780 -1.5877
C -1.6091 -1.5842 -1.5883
C -1.6067 -1.5763 -1.5913
C -1.6049 -1.5714 -1.5906
C -1.6074 -1.5800 -1.5943
C -1.6046 -1.5806 -1.5981
C -1.6116 -1.5855 -1.5953
C -1.6105 -1.5882 -1.5947
C -1.6137 -1.5898 -1.5974
C -1.6158 -1.5804 -1.5939
C -1.6134 -1.5757 -1.5944
C -1.6214 -1.5809 -1.5919
C -1.6099 -1.5763 -1.5917
C -1.6109 -1.5744 -1.5893
C -1.6089 -1.5768 -1.5926
C -1.6062 -1.5798 -1.5961
C -1.6079 -1.5835 -1.6005
C -1.6016 -1.5785 -1.5968
C -1.6057 -1.5794 -1.5962
C -1.6095 -1.5828 -1.5978
C -1.6007 -1.5806 -1.5968
C -1.6060 -1.5753 -1.5921
C -1.6080 -1.5745 -1.5909
C -1.6015 -1.5721 -1.5911
C -1.6105 -1.5744 -1.5904
C -1.6094 -1.5717 -1.5877
C -1.6173 -1.5753 -1.5896
C -1.6191 -1.5725 -1.5884
C -1.6201 -1.5782 -1.5899
C -1.6170 -1.5788 -1.5885
C -1.6275 -1.5802 -1.5906
C -1.6301 -1.5785 -1.5904
C -1.6280 -1.5889 -1.5943
C -1.6254 -1.5910 -1.5945
C -1.6335 -1.5908 -1.5946
C -1.6226 -1.5928 -1.5974
C -1.6159 -1.5921 -1.5968
C -1.6242 -1.6003 -1.5997
C -1.6230 -1.5892 -1.5965
C -1.6170 -1.5858 -1.5964
C -1.6298 -1.5868 -1.5943
C -1.6317 -1.5762 -1.5888
C -1.6356 -1.5733 -1.5876
C -1.6309 -1.5767 -1.5880
C -1.6290 -1.5793 -1.5890
C -1.6343 -1.5737 -1.5865
C -1.6389 -1.5699 -1.5839
C -1.6372 -1.5811 -1.5871
C -1.6399 -1.5797 -1.5854
C -1.6415 -1.5867 -1.5888
C -1.6378 -1.5807 -1.5932
C -1.6447 -1.5854 -1.5780
C -1.6470 -1.5961 -1.5941
C -1.6315 -1.5869 -1.5889
C -1.6258 -1.5892 -1.5897
C -1.6298 -1.5701 -1.5863
C -1.6310 -1.5734 -1.5884
C -1.6242 -1.5644 -1.5855
C -1.6221 -1.5607 -1.5833
C -1.6220 -1.5656 -1.5875
C -1.6241 -1.5692 -1.5888
C -1.6198 -1.5638 -1.5901
C -1.6200 -1.5626 -1.5850
C -1.6206 -1.5559 -1.5827
C -1.6164 -1.5684 -1.5862
C -1.6163 -1.5721 -1.5879
C -1.6157 -1.5679 -1.5854
C -1.6174 -1.5649 -1.5841
C -1.6171 -1.5728 -1.5863
C -1.6131 -1.5768 -1.5792
C -1.6229 -1.5614 -1.5881
C -1.6206 -1.5543 -1.5934
C -1.6241 -1.5621 -1.5805
C -1.6281 -1.5590 -1.5899
C -1.6170 -1.5825 -1.5950
C -1.6122 -1.5879 -1.5962
C -1.6119 -1.5657 -1.5846
C -1.6088 -1.5666 -1.5875
C -1.6117 -1.5617 -1.5811
C -1.6143 -1.5598 -1.5794
C -1.6066 -1.5570 -1.5799
C -1.6043 -1.5557 -1.5802
C -1.6079 -1.5519 -1.5758
C -1.6113 -1.5527 -1.5736
C -1.6042 -1.5464 -1.5776
C -1.6107 -1.5483 -1.5735
C -1.6176 -1.5489 -1.5775
C -1.6221 -1.5522 -1.5831
C -1.6180 -1.5448 -1.5733
C -1.6234 -1.5445 -1.5744
C -1.6122 -1.5416 -1.5656
C -1.6123 -1.5369 -1.5587
C -1.6161 -1.5355 -1.5592
C -1.6050 -1.5339 -1.5517
C -1.6049 -1.5304 -1.5460
C -1.5987 -1.5352 -1.5518
C -1.5926 -1.5333 -1.5464
C -1.5993 -1.5404 -1.5583
C -1.5941 -1.5413 -1.5571
C -1.6062 -1.5434 -1.5656
C -1.6024 -1.5597 -1.5801
C -1.6044 -1.5621 -1.5786
C -1.5974 -1.5577 -1.5816
C -1.5968 -1.5553 -1.5835
C -1.5939 -1.5604 -1.5827
C -1.5895 -1.5593 -1.5824
C -1.5937 -1.5596 -1.5818
C -1.5948 -1.5671 -1.5837
C -1.5978 -1.5690 -1.5840
C -1.5952 -1.5694 -1.5822
138
REAL frame=86
C -1.6057 -1.5729 -1.5801
C -1.6068 -1.5723 -1.5780
C -1.6044 -1.5708 -1.5824
C -1.6043 -1.5743 -1.5807
C -1.6062 -1.5770 -1.5815
C -1.6035 -1.5779 -1.5836
C -1.6081 -1.5793 -1.5802
C -1.6066 -1.5763 -1.5812
C -1.6106 -1.5790 -1.5798
C -1.6038 -1.5736 -1.5833
C -1.5995 -1.5697 -1.5838
C -1.6052 -1.5718 -1.5846
C -1.6081 -1.5687 -1.5827
C -1.6007 -1.5670 -1.5869
C -1.5985 -1.5598 -1.5846
C -1.5985 -1.5718 -1.5867
C -1.6042 -1.5654 -1.5919
C -1.6048 -1.5728 -1.5955
C -1.6043 -1.5792 -1.5953
C -1.6082 -1.5711 -1.5995
C -1.6088 -1.5769 -1.6024
C -1.6125 -1.5615 -1.5990
C -1.6179 -1.5591 -1.6026
C -1.6140 -1.5541 -1.5946
C -1.6117 -1.5537 -1.5949
C -1.6140 -1.5466 -1.5939
C -1.6079 -1.5556 -1.5914
C -1.6059 -1.5496 -1.5889
C -1.6076 -1.5780 -1.5877
C -1.6091 -1.5841 -1.5883
C -1.6067 -1.5763 -1.5913
C -1.6052 -1.5711 -1.5908
C -1.6075 -1.5800 -1.5945
C -1.6051 -1.5805 -1.5985
C -1.6115 -1.5855 -1.5952
C -1.6102 -1.5883 -1.5948
C -1.6134 -1.5898 -1.5978
C -1.6159 -1.5803 -1.5938
C -1.6134 -1.5757 -1.5944
C -1.6214 -1.5811 -1.5921
C -1.6099 -1.5765 -1.5917
C -1.6110 -1.5743 -1.5892
C -1.6089 -1.5768 -1.5926
C -1.6061 -1.5797 -1.5962
C -1.6077 -1.5836 -1.6006
C -1.6018 -1.5788 -1.5967
C -1.6058 -1.5794 -1.5962
C -1.6095 -1.5827 -1.5981
C -1.6008 -1.5810 -1.5966
C -1.6060 -1.5753 -1.5920
C -1.6085 -1.5748 -1.5910
C -1.6016 -1.5724 -1.5913
C -1.6104 -1.5743 -1.5906
C -1.6094 -1.5715 -1.5879
C -1.6174 -1.5754 -1.5896
C -1.6190 -1.5724 -1.5883
C -1.6203 -1.5780 -1.5899
C -1.6169 -1.5787 -1.5886
C -1.6276 -1.5802 -1.5906
C -1.6298 -1.5785 -1.5904
C -1.6281 -1.5889 -1.5943
C -1.6255 -1.5912 -1.5947
C -1.6335 -1.5906 -1.5944
C -1.6228 -1.5928 -1.5973
C -1.6162 -1.5923 -1.5966
C -1.6244 -1.6002 -1.5999
C -1.6231 -1.5891 -1.5963
C -1.6169 -1.5859 -1.5964
C -1.6298 -1.5867 -1.5944
C -1.6316 -1.5761 -1.5887
C -1.6356 -1.5732 -1.5877
C -1.6309 -1.5766 -1.5880
C -1.6289 -1.5792 -1.5890
C -1.6343 -1.5737 -1.5865
C -1.6387 -1.5697 -1.5846
C -1.6373 -1.5812 -1.5873
C -1.6401 -1.5804 -1.5856
C -1.6416 -1.5867 -1.5886
C -1.6378 -1.5807 -1.5931
C -1.6448 -1.5856 -1.5778
C -1.6464 -1.5959 -1.5944
C -1.6314 -1.5869 -1.5888
C -1.6260 -1.5890 -1.5898
C -1.6297 -1.5701 -1.5862
C -1.6310 -1.5734 -1.5883
C -1.6244 -1.5642 -1.5856
C -1.6220 -1.5605 -1.5833
C -1.6218 -1.5656 -1.5876
C -1.6242 -1.5690 -1.5891
C -1.6195 -1.5639 -1.5904
C -1.6200 -1.5626 -1.5849
C -1.6205 -1.5558 -1.5828
C -1.6163 -1.5684 -1.5862
C -1.6164 -1.5722 -1.5876
C -1.6157 -1.5680 -1.5855
C -1.6176 -1.5653 -1.5839
C -1.6169 -1.5728 -1.5863
C -1.6128 -1.5768 -1.5795
C -1.6229 -1.5614 -1.5881
C -1.6206 -1.5543 -1.5936
C -1.6243 -1.5623 -1.5805
C -1.6280 -1.5591 -1.5900
C -1.6170 -1.5825 -1.5949
C -1.6129 -1.5881 -1.5968
C -1.6118 -1.5657 -1.5848
C -1.6088 -1.5666 -1.5874
C -1.6117 -1.5616 -1.5813
C -1.6144 -1.5606 -1.5788
C -1.6066 -1.5570 -1.5797
C -1.6046 -1.5556 -1.5803
C -1.6080 -1.5519 -1.5760
C -1.6110 -1.5523 -1.5732
C -1.6044 -1.5469 -1.5776
C -1.6107 -1.5483 -1.5735
C -1.6175 -1.5490 -1.5776
C -1.6222 -1.5529 -1.5831
C -1.6181 -1.5449 -1.5734
C -1.6233 -1.5445 -1.5747
C -1.6122 -1.5415 -1.5655
C -1.6122 -1.5371 -1.5587
C -1.6162 -1.5357 -1.5597
C -1.6051 -1.5337 -1.5516
C -1.6047 -1.5301 -1.5460
C -1.5988 -1.5353 -1.5518
C -1.5925 -1.5333 -1.5465
C -1.5993 -1.5405 -1.5582
C -1.5943 -1.5415 -1.5569
C -1.6062 -1.5435 -1.5657
C -1.6026 -1.5597 -1.5801
C -1.6044 -1.5622 -1.5786
C -1.5973 -1.5577 -1.5816
C -1.5969 -1.5554 -1.5838
C -1.5939 -1.5604 -1.5825
C -1.5895 -1.5593 -1.5825
C -1.5936 -1.5591 -1.5812
C -1.5949 -1.5669 -1.5837
C -1.5979 -1.5690 -1.5841
C -1.5953 -1.5694 -1.5822
138
REAL frame=87
C -1.6057 -1.5729 -1.5801
C -1.6072 -1.5728 -1.5781
C -1.6045 -1.5707 -1.5827
C -1.6040 -1.5740 -1.5801
C -1.6060 -1.5769 -1.5816
C -1.6034 -1.5778 -1.5837
C -1.6081 -1.5789 -1.5800
C -1.6066 -1.5762 -1.5811
C -1.6107 -1.5790 -1.5797
C -1.6037 -1.5737 -1.5834
C -1.5995 -1.5700 -1.5839
C -1.6052 -1.5718 -1.5847
C -1.6077 -1.5685 -1.5829
C -1.6008 -1.5669 -1.5869
C -1.5984 -1.5600 -1.5848
C -1.5986 -1.5717 -1.5868
C -1.6040 -1.5655 -1.5918
C -1.6049 -1.5728 -1.5953
C -1.6044 -1.5792 -1.5952
C -1.6081 -1.5712 -1.5997
C -1.6086 -1.5769 -1.6026
C -1.6124 -1.5616 -1.5989
C -1.6179 -1.5591 -1.6025
C -1.6148 -1.5540 -1.5943
C -1.6118 -1.5536 -1.5950
C -1.6142 -1.5464 -1.5941
C -1.6078 -1.5556 -1.5915
C -1.6064 -1.5496 -1.5887
C -1.6075 -1.5780 -1.5877
C -1.6091 -1.5839 -1.5882
C -1.6068 -1.5763 -1.5913
C -1.6056 -1.5708 -1.5909
C -1.6077 -1.5800 -1.5947
C -1.6054 -1.5802 -1.5988
C -1.6114 -1.5854 -1.5951
C -1.6097 -1.5884 -1.5951
C -1.6130 -1.5899 -1.5980
C -1.6159 -1.5803 -1.5937
C -1.6135 -1.5757 -1.5944
C -1.6215 -1.5812 -1.5922
C -1.6098 -1.5767 -1.5918
C -1.6111 -1.5743 -1.5892
C -1.6089 -1.5768 -1.5926
C -1.6060 -1.5797 -1.5963
C -1.6076 -1.5837 -1.6002
C -1.6020 -1.5791 -1.5966
C -1.6058 -1.5794 -1.5963
C -1.6094 -1.5823 -1.5983
C -1.6010 -1.5813 -1.5965
C -1.6060 -1.5754 -1.5920
C -1.6088 -1.5750 -1.5911
C -1.6017 -1.5728 -1.5914
C -1.6104 -1.5742 -1.5907
C -1.6094 -1.5709 -1.5881
C -1.6175 -1.5753 -1.5897
C -1.6190 -1.5724 -1.5882
C -1.6205 -1.5780 -1.5898
C -1.6169 -1.5787 -1.5887
C -1.6277 -1.5802 -1.5906
C -1.6295 -1.5786 -1.5905
C -1.6282 -1.5889 -1.5942
C -1.6258 -1.5913 -1.5948
C -1.6334 -1.5905 -1.5941
C -1.6229 -1.5929 -1.5972
C -1.6165 -1.5925 -1.5966
C -1.6245 -1.5999 -1.6003
C -1.6233 -1.5889 -1.5961
C -1.6169 -1.5860 -1.5964
C -1.6298 -1.5868 -1.5944
C -1.6315 -1.5760 -1.5886
C -1.6357 -1.5731 -1.5878
C -1.6309 -1.5765 -1.5880
C -1.6287 -1.5791 -1.5891
C -1.6343 -1.5737 -1.5865
C -1.6385 -1.5695 -1.5853
C -1.6374 -1.5813 -1.5875
C -1.6403 -1.5807 -1.5858
C -1.6417 -1.5866 -1.5885
C -1.6377 -1.5806 -1.5931
C -1.6450 -1.5859 -1.5777
C -1.6456 -1.5958 -1.5946
C -1.6312 -1.5868 -1.5888
C -1.6263 -1.5888 -1.5900
C -1.6296 -1.5701 -1.5861
C -1.6310 -1.5733 -1.5882
C -1.6244 -1.5640 -1.5856
C -1.6221 -1.5603 -1.5833
C -1.6217 -1.5655 -1.5877
C -1.6240 -1.5689 -1.5892
C -1.6193 -1.5640 -1.5909
C -1.6199 -1.5626 -1.5849
C -1.6205 -1.5557 -1.5828
C -1.6162 -1.5684 -1.5861
C -1.6164 -1.5723 -1.5874
C -1.6158 -1.5681 -1.5854
C -1.6177 -1.5657 -1.5836
C -1.6168 -1.5727 -1.5863
C -1.6128 -1.5768 -1.5797
C -1.6229 -1.5613 -1.5881
C -1.6208 -1.5543 -1.5938
C -1.6243 -1.5626 -1.5806
C -1.6280 -1.5591 -1.5902
C -1.6169 -1.5825 -1.5949
C -1.6136 -1.5884 -1.5972
C -1.6118 -1.5657 -1.5850
C -1.6087 -1.5666 -1.5873
C -1.6117 -1.5616 -1.5815
C -1.6145 -1.5615 -1.5784
C -1.6065 -1.5570 -1.5796
C -1.6049 -1.5555 -1.5804
C -1.6081 -1.5517 -1.5762
C -1.6106 -1.5523 -1.5730
C -1.6047 -1.5476 -1.5775
C -1.6107 -1.5482 -1.5735
C -1.6175 -1.5491 -1.5777
C -1.6223 -1.5533 -1.5831
C -1.6182 -1.5449 -1.5734
C -1.6232 -1.5446 -1.5751
C -1.6122 -1.5414 -1.5654
C -1.6121 -1.5372 -1.5586
C -1.6163 -1.5360 -1.5600
C -1.6051 -1.5336 -1.5516
C -1.6045 -1.5298 -1.5461
C -1.5988 -1.5354 -1.5517
C -1.5924 -1.5330 -1.5464
C -1.5993 -1.5407 -1.5582
C -1.5946 -1.5417 -1.5570
C -1.6062 -1.5436 -1.5658
C -1.6028 -1.5597 -1.5801
C -1.6044 -1.5622 -1.5787
C -1.5973 -1.5577 -1.5816
C -1.5971 -1.5554 -1.5841
C -1.5939 -1.5603 -1.5822
C -1.5896 -1.5592 -1.5827
C -1.5937 -1.5587 -1.5808
C -1.5951 -1.5667 -1.5837
C -1.5979 -1.5689 -1.5841
C -1.5953 -1.5695 -1.5823
138
REAL frame=88
C -1.6057 -1.5730 -1.5802
C -1.6073 -1.5733 -1.5780
C -1.6047 -1.5704 -1.5830
C -1.6039 -1.5736 -1.5793
C -1.6059 -1.5768 -1.5816
C -1.6033 -1.5777 -1.5837
C -1.6081 -1.5784 -1.5799
C -1.6067 -1.5762 -1.5810
C -1.6108 -1.5791 -1.5796
C -1.6036 -1.5737 -1.5835
C -1.5997 -1.5704 -1.5838
C -1.6052 -1.5717 -1.5848
C -1.6074 -1.5684 -1.5829
C -1.6008 -1.5668 -1.5869
C -1.5982 -1.5602 -1.5851
C -1.5985 -1.5716 -1.5869
C -1.6039 -1.5656 -1.5917
C -1.6050 -1.5728 -1.5953
C -1.6044 -1.5794 -1.5949
C -1.6080 -1.5713 -1.5998
C -1.6085 -1.5768 -1.6027
C -1.6124 -1.5617 -1.5989
C -1.6179 -1.5591 -1.6024
C -1.6156 -1.5540 -1.5940
C -1.6118 -1.5535 -1.5952
C -1.6144 -1.5461 -1.5946
C -1.6077 -1.5557 -1.5915
C -1.6071 -1.5497 -1.5885
C -1.6074 -1.5781 -1.5878
C -1.6090 -1.5836 -1.5881
C -1.6068 -1.5762 -1.5913
C -1.6058 -1.5706 -1.5909
C -1.6080 -1.5800 -1.5950
C -1.6057 -1.5800 -1.5992
C -1.6112 -1.5854 -1.5950
C -1.6092 -1.5885 -1.5954
C -1.6126 -1.5899 -1.5980
C -1.6158 -1.5802 -1.5937
C -1.6135 -1.5757 -1.5943
C -1.6215 -1.5813 -1.5923
C -1.6097 -1.5769 -1.5918
C -1.6112 -1.5743 -1.5891
C -1.6090 -1.5769 -1.5927
C -1.6059 -1.5796 -1.5963
C -1.6075 -1.5836 -1.5992
C -1.6020 -1.5792 -1.5965
C -1.6058 -1.5795 -1.5963
C -1.6092 -1.5819 -1.5984
C -1.6012 -1.5814 -1.5967
C -1.6061 -1.5754 -1.5920
C -1.6089 -1.5751 -1.5913
C -1.6019 -1.5732 -1.5916
C -1.6104 -1.5741 -1.5907
C -1.6095 -1.5702 -1.5884
C -1.6175 -1.5751 -1.5898
C -1.6190 -1.5724 -1.5881
C -1.6206 -1.5779 -1.5897
C -1.6170 -1.5788 -1.5888
C -1.6278 -1.5802 -1.5907
C -1.6293 -1.5787 -1.5907
C -1.6282 -1.5889 -1.5941
C -1.6263 -1.5913 -1.5948
C -1.6334 -1.5905 -1.5940
C -1.6231 -1.5931 -1.5971
C -1.6167 -1.5927 -1.5967
C -1.6247 -1.5997 -1.6005
C -1.6233 -1.5886 -1.5959
C -1.6169 -1.5861 -1.5964
C -1.6298 -1.5869 -1.5945
C -1.6315 -1.5761 -1.5884
C -1.6357 -1.5730 -1.5878
C -1.6309 -1.5764 -1.5881
C -1.6284 -1.5789 -1.5892
C -1.6344 -1.5737 -1.5864
C -1.6382 -1.5695 -1.5859
C -1.6373 -1.5815 -1.5876
C -1.6406 -1.5805 -1.5860
C -1.6420 -1.5865 -1.5883
C -1.6377 -1.5806 -1.5932
C -1.6453 -1.5863 -1.5777
C -1.6449 -1.5957 -1.5947
C -1.6311 -1.5868 -1.5889
C -1.6266 -1.5887 -1.5902
C -1.6296 -1.5700 -1.5861
C -1.6311 -1.5733 -1.5881
C -1.6245 -1.5639 -1.5855
C -1.6224 -1.5602 -1.5833
C -1.6216 -1.5653 -1.5879
C -1.6236 -1.5690 -1.5891
C -1.6191 -1.5642 -1.5915
C -1.6198 -1.5625 -1.5848
C -1.6204 -1.5557 -1.5830
C -1.6162 -1.5683 -1.5861
C -1.6164 -1.5724 -1.5873
C -1.6158 -1.5682 -1.5854
C -1.6178 -1.5661 -1.5833
C -1.6166 -1.5727 -1.5863
C -1.6130 -1.5769 -1.5797
C -1.6230 -1.5613 -1.5881
C -1.6210 -1.5543 -1.5940
C -1.6241 -1.5628 -1.5806
C -1.6281 -1.5590 -1.5905
C -1.6169 -1.5825 -1.5948
C -1.6141 -1.5886 -1.5973
C -1.6118 -1.5656 -1.5852
C -1.6087 -1.5667 -1.5873
C -1.6117 -1.5615 -1.5815
C -1.6148 -1.5623 -1.5781
C -1.6066 -1.5571 -1.5795
C -1.6050 -1.5555 -1.5803
C -1.6082 -1.5515 -1.5763
C -1.6102 -1.5528 -1.5730
C -1.6052 -1.5483 -1.5772
C -1.6106 -1.5482 -1.5735
C -1.6174 -1.5492 -1.5777
C -1.6224 -1.5533 -1.5831
C -1.6184 -1.5449 -1.5734
C -1.6231 -1.5449 -1.5756
C -1.6122 -1.5414 -1.5654
C -1.6119 -1.5372 -1.5587
C -1.6165 -1.5361 -1.5599
C -1.6052 -1.5335 -1.5515
C -1.6043 -1.5295 -1.5461
C -1.5989 -1.5355 -1.5517
C -1.5925 -1.5327 -1.5461
C -1.5993 -1.5407 -1.5582
C -1.5949 -1.5419 -1.5572
C -1.6062 -1.5436 -1.5658
C -1.6029 -1.5596 -1.5801
C -1.6044 -1.5622 -1.5787
C -1.5974 -1.5578 -1.5817
C -1.5972 -1.5553 -1.5842
C -1.5938 -1.5602 -1.5820
C -1.5896 -1.5589 -1.5830
C -1.5940 -1.5584 -1.5805
C -1.5953 -1.5665 -1.5836
C -1.5980 -1.5689 -1.5840
C -1.5953 -1.5695 -1.5823
138
REAL frame=89
C -1.6058 -1.5730 -1.5803
C -1.6074 -1.5736 -1.5780
C -1.6051 -1.5699 -1.5831
C -1.6040 -1.5732 -1.5785
C -1.6057 -1.5766 -1.5815
C -1.6031 -1.5777 -1.5835
C -1.6081 -1.5779 -1.5801
C -1.6067 -1.5763 -1.5810
C -1.6109 -1.5791 -1.5795
C -1.6034 -1.5736 -1.5836
C -1.5999 -1.5709 -1.5837
C -1.6052 -1.5717 -1.5849
C -1.6071 -1.5685 -1.5829
C -1.6009 -1.5668 -1.5869
C -1.5981 -1.5604 -1.5853
C -1.5982 -1.5714 -1.5872
C -1.6037 -1.5656 -1.5916
C -1.6051 -1.5729 -1.5952
C -1.6042 -1.5797 -1.5946
C -1.6080 -1.5714 -1.5998
C -1.6083 -1.5766 -1.6028
C -1.6123 -1.5616 -1.5989
C -1.6179 -1.5591 -1.6023
C -1.6164 -1.5542 -1.5936
C -1.6118 -1.5534 -1.5953
C -1.6148 -1.5457 -1.5952
C -1.6076 -1.5557 -1.5916
C -1.6078 -1.5498 -1.5884
C -1.6073 -1.5781 -1.5880
C -1.6090 -1.5834 -1.5880
C -1.6068 -1.5761 -1.5913
C -1.6058 -1.5706 -1.5909
C -1.6082 -1.5799 -1.5951
C -1.6057 -1.5798 -1.5994
C -1.6111 -1.5853 -1.5949
C -1.6089 -1.5885 -1.5956
C -1.6122 -1.5900 -1.5977
C -1.6157 -1.5803 -1.5937
C -1.6135 -1.5757 -1.5943
C -1.6216 -1.5814 -1.5925
C -1.6096 -1.5771 -1.5919
C -1.6113 -1.5743 -1.5891
C -1.6090 -1.5770 -1.5927
C -1.6058 -1.5796 -1.5964
C -1.6074 -1.5834 -1.5981
C -1.6020 -1.5793 -1.5964
C -1.6057 -1.5796 -1.5963
C -1.6089 -1.5814 -1.5985
C -1.6014 -1.5813 -1.5969
C -1.6062 -1.5754 -1.5921
C -1.6088 -1.5751 -1.5915
C -1.6022 -1.5737 -1.5917
C -1.6104 -1.5739 -1.5907
C -1.6096 -1.5694 -1.5886
C -1.6175 -1.5749 -1.5899
C -1.6190 -1.5725 -1.5880
C -1.6207 -1.5779 -1.5896
C -1.6173 -1.5790 -1.5889
C -1.6280 -1.5802 -1.5907
C -1.6294 -1.5788 -1.5908
C -1.6282 -1.5888 -1.5940
C -1.6268 -1.5912 -1.5947
C -1.6335 -1.5905 -1.5939
C -1.6232 -1.5932 -1.5970
C -1.6171 -1.5929 -1.5970
C -1.6248 -1.5994 -1.6007
C -1.6233 -1.5884 -1.5958
C -1.6171 -1.5862 -1.5963
C -1.6298 -1.5869 -1.5946
C -1.6314 -1.5762 -1.5884
C -1.6358 -1.5729 -1.5879
C -1.6309 -1.5762 -1.5881
C -1.6280 -1.5787 -1.5893
C -1.6344 -1.5738 -1.5862
C -1.6381 -1.5695 -1.5861
C -1.6373 -1.5817 -1.5877
C -1.6408 -1.5800 -1.5862
C -1.6422 -1.5863 -1.5882
C -1.6378 -1.5805 -1.5933
C -1.6456 -1.5867 -1.5779
C -1.6443 -1.5956 -1.5946
C -1.6310 -1.5868 -1.5889
C -1.6269 -1.5888 -1.5903
C -1.6295 -1.5699 -1.5862
C -1.6311 -1.5733 -1.5879
C -1.6244 -1.5639 -1.5854
C -1.6229 -1.5602 -1.5832
C -1.6216 -1.5651 -1.5880
C -1.6231 -1.5693 -1.5888
C -1.6190 -1.5643 -1.5920
C -1.6197 -1.5625 -1.5848
C -1.6204 -1.5557 -1.5831
C -1.6162 -1.5683 -1.5861
C -1.6162 -1.5725 -1.5875
C -1.6159 -1.5682 -1.5853
C -1.6178 -1.5666 -1.5830
C -1.6164 -1.5727 -1.5863
C -1.6132 -1.5770 -1.5795
C -1.6230 -1.5613 -1.5880
C -1.6213 -1.5544 -1.5941
C -1.6239 -1.5629 -1.5807
C -1.6281 -1.5589 -1.5910
C -1.6168 -1.5824 -1.5948
C -1.6143 -1.5890 -1.5971
C -1.6118 -1.5654 -1.5853
C -1.6086 -1.5668 -1.5873
C -1.6116 -1.5615 -1.5815
C -1.6154 -1.5629 -1.5781
C -1.6066 -1.5571 -1.5795
C -1.6050 -1.5556 -1.5803
C -1.6083 -1.5513 -1.5763
C -1.6098 -1.5535 -1.5734
C -1.6056 -1.5488 -1.5768
C -1.6105 -1.5482 -1.5735
C -1.6173 -1.5493 -1.5778
C -1.6223 -1.5531 -1.5833
C -1.6185 -1.5449 -1.5733
C -1.6231 -1.5451 -1.5758
C -1.6122 -1.5415 -1.5655
C -1.6118 -1.5372 -1.5587
C -1.6168 -1.5361 -1.5596
C -1.6053 -1.5335 -1.5514
C -1.6041 -1.5293 -1.5462
C -1.5989 -1.5356 -1.5516
C -1.5927 -1.5324 -1.5458
C -1.5994 -1.5408 -1.5583
C -1.5953 -1.5421 -1.5576
C -1.6063 -1.5436 -1.5658
C -1.6029 -1.5595 -1.5802
C -1.6044 -1.5623 -1.5787
C -1.5974 -1.5579 -1.5818
C -1.5974 -1.5553 -1.5842
C -1.5938 -1.5601 -1.5818
C -1.5896 -1.5586 -1.5830
C -1.5942 -1.5582 -1.5804
C -1.5955 -1.5663 -1.5834
C -1.5980 -1.5689 -1.5840
C -1.5954 -1.5695 -1.5824
138
REAL frame=90
C -1.6058 -1.5731 -1.5804
C -1.6074 -1.5737 -1.5780
C -1.6056 -1.5693 -1.5830
C -1.6040 -1.5728 -1.5780
C -1.6056 -1.5765 -1.5815
C -1.6030 -1.5776 -1.5833
C -1.6080 -1.5775 -1.5805
C -1.6067 -1.5764 -1.5810
C -1.6110 -1.5791 -1.5793
C -1.6034 -1.5736 -1.5837
C -1.6001 -1.5713 -1.5838
C -1.6052 -1.5717 -1.5849
C -1.6070 -1.5686 -1.5828
C -1.6010 -1.5668 -1.5869
C -1.5981 -1.5605 -1.5854
C -1.5979 -1.5711 -1.5875
C -1.6036 -1.5656 -1.5914
C -1.6051 -1.5729 -1.5953
C -1.6038 -1.5801 -1.5943
C -1.6079 -1.5714 -1.5998
C -1.6083 -1.5765 -1.6028
C -1.6123 -1.5616 -1.5990
C -1.6179 -1.5592 -1.6022
C -1.6171 -1.5544 -1.5931
C -1.6118 -1.5534 -1.5954
C -1.6152 -1.5454 -1.5958
C -1.6075 -1.5558 -1.5916
C -1.6085 -1.5500 -1.5883
C -1.6073 -1.5780 -1.5881
C -1.6089 -1.5833 -1.5879
C -1.6069 -1.5760 -1.5914
C -1.6057 -1.5707 -1.5907
C -1.6083 -1.5799 -1.5952
C -1.6057 -1.5798 -1.5995
C -1.6111 -1.5853 -1.5949
C -1.6087 -1.5884 -1.5956
C -1.6119 -1.5900 -1.5971
C -1.6156 -1.5803 -1.5937
C -1.6135 -1.5757 -1.5942
C -1.6217 -1.5815 -1.5926
C -1.6094 -1.5772 -1.5920
C -1.6114 -1.5743 -1.5891
C -1.6091 -1.5771 -1.5928
C -1.6057 -1.5796 -1.5964
C -1.6073 -1.5830 -1.5970
C -1.6019 -1.5793 -1.5964
C -1.6056 -1.5796 -1.5964
C -1.6087 -1.5811 -1.5983
C -1.6016 -1.5810 -1.5973
C -1.6063 -1.5754 -1.5922
C -1.6084 -1.5750 -1.5918
C -1.6024 -1.5740 -1.5917
C -1.6105 -1.5738 -1.5907
C -1.6097 -1.5687 -1.5887
C -1.6175 -1.5747 -1.5899
C -1.6190 -1.5725 -1.5879
C -1.6207 -1.5780 -1.5896
C -1.6177 -1.5791 -1.5890
C -1.6281 -1.5802 -1.5907
C -1.6296 -1.5788 -1.5909
C -1.6282 -1.5888 -1.5939
C -1.6272 -1.5910 -1.5944
C -1.6336 -1.5906 -1.5939
C -1.6233 -1.5932 -1.5969
C -1.6174 -1.5931 -1.5972
C -1.6250 -1.5992 -1.6006
C -1.6232 -1.5883 -1.5958
C -1.6172 -1.5862 -1.5961
C -1.6297 -1.5869 -1.5946
C -1.6315 -1.5762 -1.5884
C -1.6358 -1.5727 -1.5879
C -1.6309 -1.5760 -1.5882
C -1.6276 -1.5785 -1.5895
C -1.6343 -1.5738 -1.5862
C -1.6382 -1.5696 -1.5859
C -1.6372 -1.5818 -1.5878
C -1.6408 -1.5792 -1.5863
C -1.6424 -1.5862 -1.5882
C -1.6380 -1.5803 -1.5932
C -1.6460 -1.5870 -1.5783
C -1.6441 -1.5954 -1.5946
C -1.6309 -1.5868 -1.5890
C -1.6273 -1.5889 -1.5905
C -1.6295 -1.5698 -1.5863
C -1.6310 -1.5733 -1.5878
C -1.6244 -1.5639 -1.5852
C -1.6233 -1.5603 -1.5832
C -1.6216 -1.5648 -1.5882
C -1.6227 -1.5696 -1.5884
C -1.6191 -1.5643 -1.5926
C -1.6195 -1.5624 -1.5848
C -1.6204 -1.5557 -1.5832
C -1.6162 -1.5682 -1.5861
C -1.6159 -1.5723 -1.5877
C -1.6158 -1.5682 -1.5852
C -1.6177 -1.5668 -1.5827
C -1.6164 -1.5727 -1.5864
C -1.6135 -1.5770 -1.5791
C -1.6230 -1.5613 -1.5880
C -1.6217 -1.5544 -1.5941
C -1.6237 -1.5629 -1.5808
C -1.6281 -1.5588 -1.5914
C -1.6169 -1.5824 -1.5948
C -1.6142 -1.5894 -1.5966
C -1.6118 -1.5653 -1.5853
C -1.6084 -1.5669 -1.5874
C -1.6115 -1.5614 -1.5815
C -1.6160 -1.5634 -1.5783
C -1.6067 -1.5572 -1.5795
C -1.6047 -1.5558 -1.5801
C -1.6084 -1.5511 -1.5763
C -1.6097 -1.5542 -1.5739
C -1.6058 -1.5489 -1.5765
C -1.6104 -1.5482 -1.5735
C -1.6173 -1.5493 -1.5778
C -1.6222 -1.5527 -1.5834
C -1.6186 -1.5450 -1.5732
C -1.6231 -1.5452 -1.5759
C -1.6122 -1.5416 -1.5657
C -1.6117 -1.5372 -1.5587
C -1.6170 -1.5361 -1.5591
C -1.6053 -1.5335 -1.5513
C -1.6039 -1.5292 -1.5462
C -1.5990 -1.5356 -1.5514
C -1.5931 -1.5323 -1.5456
C -1.5995 -1.5408 -1.5584
C -1.5956 -1.5421 -1.5580
C -1.6063 -1.5436 -1.5658
C -1.6029 -1.5594 -1.5802
C -1.6044 -1.5624 -1.5787
C -1.5975 -1.5579 -1.5818
C -1.5974 -1.5554 -1.5841
C -1.5937 -1.5600 -1.5817
C -1.5895 -1.5582 -1.5830
C -1.5945 -1.5582 -1.5805
C -1.5957 -1.5662 -1.5832
C -1.5980 -1.5689 -1.5839
C -1.5954 -1.5695 -1.5825
138
REAL frame=91
C -1.6068 -1.5742 -1.5816
C -1.6084 -1.5747 -1.5793
C -1.6072 -1.5697 -1.5839
C -1.6051 -1.5738 -1.5790
C -1.6065 -1.5774 -1.5825
C -1.6039 -1.5787 -1.5842
C -1.6090 -1.5783 -1.5821
C -1.6076 -1.5775 -1.5821
C -1.6121 -1.5802 -1.5803
C -1.6044 -1.5746 -1.5848
C -1.6013 -1.5725 -1.5851
C -1.6062 -1.5728 -1.5861
C -1.6080 -1.5699 -1.5838
C -1.6022 -1.5680 -1.5880
C -1.5993 -1.5617 -1.5864
C -1.5987 -1.5720 -1.5889
C -1.6046 -1.5666 -1.5924
C -1.6062 -1.5741 -1.5963
C -1.6045 -1.5815 -1.5952
C -1.6090 -1.5725 -1.6008
C -1.6093 -1.5777 -1.6038
C -1.6133 -1.5626 -1.6002
C -1.6190 -1.5603 -1.6032
C -1.6190 -1.5559 -1.5937
C -1.6129 -1.5545 -1.5965
C -1.6167 -1.5463 -1.5973
C -1.6084 -1.5570 -1.5927
C -1.6101 -1.5511 -1.5894
C -1.6083 -1.5789 -1.5893
C -1.6100 -1.5843 -1.5889
C -1.6081 -1.5770 -1.5925
C -1.6066 -1.5720 -1.5917
C -1.6094 -1.5809 -1.5964
C -1.6067 -1.5809 -1.6006
C -1.6121 -1.5863 -1.5960
C -1.6099 -1.5894 -1.5966
C -1.6127 -1.5910 -1.5975
C -1.6165 -1.5814 -1.5949
C -1.6145 -1.5768 -1.5952
C -1.6229 -1.5828 -1.5938
C -1.6103 -1.5784 -1.5932
C -1.6126 -1.5755 -1.5902
C -1.6101 -1.5784 -1.5939
C -1.6067 -1.5808 -1.5974
C -1.6084 -1.5836 -1.5973
C -1.6028 -1.5803 -1.5975
C -1.6066 -1.5808 -1.5974
C -1.6096 -1.5821 -1.5991
C -1.6028 -1.5817 -1.5987
C -1.6076 -1.5765 -1.5934
C -1.6090 -1.5760 -1.5931
C -1.6037 -1.5753 -1.5927
C -1.6116 -1.5748 -1.5917
C -1.6110 -1.5694 -1.5899
C -1.6185 -1.5758 -1.5909
C -1.6201 -1.5736 -1.5889
C -1.6218 -1.5792 -1.5907
C -1.6192 -1.5804 -1.5902
C -1.6292 -1.5813 -1.5917
C -1.6311 -1.5799 -1.5921
C -1.6292 -1.5900 -1.5950
C -1.6285 -1.5918 -1.5951
C -1.6347 -1.5918 -1.5951
C -1.6244 -1.5943 -1.5979
C -1.6187 -1.5943 -1.5985
C -1.6262 -1.6001 -1.6013
C -1.6242 -1.5896 -1.5969
C -1.6185 -1.5873 -1.5970
C -1.6308 -1.5880 -1.5958
C -1.6326 -1.5773 -1.5896
C -1.6368 -1.5738 -1.5890
C -1.6319 -1.5770 -1.5893
C -1.6282 -1.5794 -1.5907
C -1.6353 -1.5751 -1.5873
C -1.6395 -1.5709 -1.5864
C -1.6381 -1.5829 -1.5889
C -1.6416 -1.5796 -1.5876
C -1.6435 -1.5872 -1.5892
C -1.6394 -1.5813 -1.5940
C -1.6474 -1.5885 -1.5799
C -1.6452 -1.5963 -1.5958
C -1.6319 -1.5879 -1.5903
C -1.6286 -1.5903 -1.5918
C -1.6306 -1.5709 -1.5875
C -1.6320 -1.5744 -1.5889
C -1.6253 -1.5651 -1.5862
C -1.6247 -1.5616 -1.5843
C -1.6227 -1.5657 -1.5893
C -1.6236 -1.5708 -1.5892
C -1.6203 -1.5652 -1.5941
C -1.6205 -1.5635 -1.5861
C -1.6215 -1.5568 -1.5844
C -1.6173 -1.5692 -1.5872
C -1.6166 -1.5733 -1.5892
C -1.6168 -1.5692 -1.5863
C -1.6186 -1.5680 -1.5836
C -1.6174 -1.5739 -1.5876
C -1.6147 -1.5780 -1.5798
C -1.6240 -1.5624 -1.5892
C -1.6229 -1.5556 -1.5951
C -1.6246 -1.5638 -1.5820
C -1.6291 -1.5598 -1.5929
C -1.6179 -1.5834 -1.5960
C -1.6148 -1.5908 -1.5971
C -1.6127 -1.5662 -1.5864
C -1.6093 -1.5681 -1.5886
C -1.6125 -1.5626 -1.5825
C -1.6175 -1.5649 -1.5797
C -1.6079 -1.5582 -1.5807
C -1.6055 -1.5572 -1.5811
C -1.6095 -1.5521 -1.5774
C -1.6109 -1.5558 -1.5755
C -1.6069 -1.5498 -1.5775
C -1.6113 -1.5493 -1.5747
C -1.6183 -1.5504 -1.5790
C -1.6230 -1.5533 -1.5846
C -1.6197 -1.5463 -1.5743
C -1.6241 -1.5463 -1.5768
C -1.6133 -1.5429 -1.5670
C -1.6127 -1.5383 -1.5600
C -1.6182 -1.5372 -1.5598
C -1.6064 -1.5348 -1.5524
C -1.6049 -1.5304 -1.5474
C -1.6000 -1.5367 -1.5525
C -1.5945 -1.5335 -1.5466
C -1.6007 -1.5418 -1.5597
C -1.5968 -1.5433 -1.5595
C -1.6075 -1.5447 -1.5669
C -1.6039 -1.5604 -1.5814
C -1.6055 -1.5636 -1.5799
C -1.5988 -1.5590 -1.5829
C -1.5985 -1.5565 -1.5852
C -1.5948 -1.5610 -1.5828
C -1.5905 -1.5590 -1.5839
C -1.5956 -1.5594 -1.5817
C -1.5969 -1.5672 -1.5840
C -1.5990 -1.5699 -1.5850
C -1.5965 -1.5705 -1.5838
138
REAL frame=92
C -1.6068 -1.5742 -1.5816
C -1.6086 -1.5745 -1.5797
C -1.6076 -1.5692 -1.5836
C -1.6050 -1.5740 -1.5794
C -1.6064 -1.5774 -1.5825
C -1.6038 -1.5787 -1.5839
C -1.6089 -1.5783 -1.5826
C -1.6076 -1.5776 -1.5822
C -1.6122 -1.5802 -1.5802
C -1.6044 -1.5745 -1.5848
C -1.6012 -1.5724 -1.5855
C -1.6061 -1.5729 -1.5862
C -1.6082 -1.5701 -1.5837
C -1.6022 -1.5681 -1.5880
C -1.5996 -1.5618 -1.5862
C -1.5986 -1.5719 -1.5891
C -1.6045 -1.5666 -1.5924
C -1.6062 -1.5742 -1.5963
C -1.6040 -1.5817 -1.5953
C -1.6089 -1.5725 -1.6007
C -1.6093 -1.5778 -1.6037
C -1.6133 -1.5626 -1.6004
C -1.6190 -1.5604 -1.6031
C -1.6197 -1.5563 -1.5934
C -1.6130 -1.5545 -1.5966
C -1.6171 -1.5462 -1.5974
C -1.6083 -1.5570 -1.5927
C -1.6104 -1.5510 -1.5894
C -1.6083 -1.5786 -1.5893
C -1.6099 -1.5842 -1.5888
C -1.6082 -1.5769 -1.5926
C -1.6064 -1.5722 -1.5916
C -1.6093 -1.5809 -1.5963
C -1.6066 -1.5810 -1.6004
C -1.6121 -1.5863 -1.5961
C -1.6102 -1.5894 -1.5963
C -1.6125 -1.5909 -1.5969
C -1.6164 -1.5815 -1.5950
C -1.6145 -1.5769 -1.5951
C -1.6230 -1.5829 -1.5939
C -1.6102 -1.5784 -1.5933
C -1.6127 -1.5757 -1.5902
C -1.6101 -1.5784 -1.5940
C -1.6067 -1.5809 -1.5973
C -1.6085 -1.5832 -1.5970
C -1.6026 -1.5802 -1.5976
C -1.6065 -1.5809 -1.5975
C -1.6096 -1.5822 -1.5987
C -1.6028 -1.5812 -1.5991
C -1.6077 -1.5764 -1.5935
C -1.6084 -1.5759 -1.5933
C -1.6038 -1.5753 -1.5926
C -1.6118 -1.5747 -1.5917
C -1.6111 -1.5692 -1.5899
C -1.6185 -1.5757 -1.5908
C -1.6202 -1.5735 -1.5889
C -1.6217 -1.5792 -1.5907
C -1.6196 -1.5806 -1.5905
C -1.6292 -1.5813 -1.5916
C -1.6317 -1.5799 -1.5920
C -1.6293 -1.5900 -1.5949
C -1.6286 -1.5915 -1.5946
C -1.6348 -1.5917 -1.5953
C -1.6245 -1.5942 -1.5979
C -1.6190 -1.5943 -1.5987
C -1.6264 -1.5999 -1.6008
C -1.6241 -1.5898 -1.5969
C -1.6187 -1.5874 -1.5968
C -1.6307 -1.5879 -1.5958
C -1.6327 -1.5772 -1.5897
C -1.6368 -1.5737 -1.5890
C -1.6319 -1.5770 -1.5892
C -1.6278 -1.5792 -1.5908
C -1.6352 -1.5751 -1.5874
C -1.6398 -1.5711 -1.5855
C -1.6381 -1.5828 -1.5888
C -1.6412 -1.5791 -1.5876
C -1.6436 -1.5871 -1.5892
C -1.6399 -1.5810 -1.5936
C -1.6478 -1.5887 -1.5805
C -1.6457 -1.5960 -1.5958
C -1.6318 -1.5880 -1.5904
C -1.6288 -1.5904 -1.5919
C -1.6307 -1.5709 -1.5874
C -1.6319 -1.5744 -1.5888
C -1.6253 -1.5651 -1.5861
C -1.6247 -1.5619 -1.5844
C -1.6228 -1.5656 -1.5893
C -1.6237 -1.5708 -1.5890
C -1.6206 -1.5648 -1.5944
C -1.6204 -1.5634 -1.5863
C -1.6215 -1.5568 -1.5845
C -1.6173 -1.5691 -1.5872
C -1.6162 -1.5731 -1.5894
C -1.6168 -1.5691 -1.5862
C -1.6185 -1.5678 -1.5836
C -1.6175 -1.5739 -1.5876
C -1.6148 -1.5779 -1.5794
C -1.6240 -1.5624 -1.5893
C -1.6230 -1.5556 -1.5949
C -1.6247 -1.5636 -1.5820
C -1.6291 -1.5598 -1.5930
C -1.6179 -1.5834 -1.5960
C -1.6145 -1.5911 -1.5963
C -1.6126 -1.5661 -1.5863
C -1.6092 -1.5682 -1.5887
C -1.6125 -1.5626 -1.5825
C -1.6178 -1.5650 -1.5798
C -1.6080 -1.5582 -1.5808
C -1.6053 -1.5574 -1.5810
C -1.6095 -1.5521 -1.5773
C -1.6114 -1.5560 -1.5758
C -1.6067 -1.5493 -1.5774
C -1.6112 -1.5493 -1.5747
C -1.6183 -1.5503 -1.5790
C -1.6228 -1.5529 -1.5847
C -1.6198 -1.5465 -1.5743
C -1.6242 -1.5462 -1.5762
C -1.6134 -1.5430 -1.5672
C -1.6126 -1.5382 -1.5600
C -1.6182 -1.5371 -1.5594
C -1.6064 -1.5349 -1.5524
C -1.6049 -1.5306 -1.5474
C -1.6001 -1.5367 -1.5524
C -1.5948 -1.5339 -1.5465
C -1.6008 -1.5417 -1.5598
C -1.5969 -1.5432 -1.5599
C -1.6076 -1.5447 -1.5668
C -1.6039 -1.5604 -1.5815
C -1.6055 -1.5637 -1.5800
C -1.5989 -1.5589 -1.5830
C -1.5984 -1.5566 -1.5850
C -1.5948 -1.5609 -1.5829
C -1.5904 -1.5588 -1.5836
C -1.5956 -1.5596 -1.5819
C -1.5970 -1.5672 -1.5837
C -1.5990 -1.5699 -1.5849
C -1.5965 -1.5704 -1.5839
138
REAL frame=93
C -1.6069 -1.5741 -1.5815
C -1.6088 -1.5743 -1.5801
C -1.6080 -1.5688 -1.5833
C -1.6049 -1.5743 -1.5800
C -1.6064 -1.5774 -1.5825
C -1.6036 -1.5787 -1.5837
C -1.6088 -1.5784 -1.5830
C -1.6076 -1.5776 -1.5824
C -1.6123 -1.5802 -1.5801
C -1.6044 -1.5745 -1.5847
C -1.6010 -1.5721 -1.5861
C -1.6060 -1.5729 -1.5863
C -1.6084 -1.5703 -1.5837
C -1.6021 -1.5682 -1.5881
C -1.5999 -1.5619 -1.5858
C -1.5986 -1.5720 -1.5892
C -1.6045 -1.5665 -1.5925
C -1.6062 -1.5743 -1.5962
C -1.6036 -1.5819 -1.5955
C -1.6089 -1.5725 -1.6006
C -1.6093 -1.5781 -1.6036
C -1.6133 -1.5626 -1.6006
C -1.6190 -1.5604 -1.6030
C -1.6203 -1.5567 -1.5930
C -1.6130 -1.5545 -1.5967
C -1.6175 -1.5463 -1.5972
C -1.6082 -1.5569 -1.5927
C -1.6104 -1.5509 -1.5894
C -1.6083 -1.5783 -1.5893
C -1.6100 -1.5842 -1.5888
C -1.6083 -1.5767 -1.5927
C -1.6064 -1.5722 -1.5917
C -1.6092 -1.5809 -1.5962
C -1.6065 -1.5813 -1.6002
C -1.6121 -1.5864 -1.5962
C -1.6108 -1.5895 -1.5960
C -1.6125 -1.5908 -1.5964
C -1.6163 -1.5814 -1.5951
C -1.6145 -1.5769 -1.5950
C -1.6231 -1.5830 -1.5940
C -1.6101 -1.5783 -1.5934
C -1.6129 -1.5758 -1.5903
C -1.6100 -1.5784 -1.5940
C -1.6067 -1.5810 -1.5971
C -1.6087 -1.5830 -1.5972
C -1.6025 -1.5802 -1.5977
C -1.6064 -1.5809 -1.5976
C -1.6097 -1.5825 -1.5982
C -1.6027 -1.5808 -1.5993
C -1.6078 -1.5764 -1.5937
C -1.6080 -1.5758 -1.5936
C -1.6038 -1.5752 -1.5924
C -1.6119 -1.5747 -1.5916
C -1.6111 -1.5694 -1.5899
C -1.6186 -1.5758 -1.5907
C -1.6202 -1.5734 -1.5889
C -1.6217 -1.5793 -1.5908
C -1.6199 -1.5808 -1.5909
C -1.6292 -1.5813 -1.5916
C -1.6322 -1.5798 -1.5918
C -1.6294 -1.5900 -1.5949
C -1.6286 -1.5913 -1.5941
C -1.6348 -1.5915 -1.5957
C -1.6245 -1.5941 -1.5979
C -1.6193 -1.5944 -1.5986
C -1.6266 -1.5997 -1.6002
C -1.6241 -1.5900 -1.5968
C -1.6189 -1.5874 -1.5966
C -1.6307 -1.5877 -1.5959
C -1.6328 -1.5770 -1.5899
C -1.6368 -1.5737 -1.5890
C -1.6319 -1.5769 -1.5892
C -1.6274 -1.5791 -1.5908
C -1.6352 -1.5752 -1.5875
C -1.6401 -1.5715 -1.5846
C -1.6380 -1.5826 -1.5887
C -1.6408 -1.5788 -1.5875
C -1.6436 -1.5871 -1.5893
C -1.6405 -1.5809 -1.5930
C -1.6480 -1.5888 -1.5811
C -1.6463 -1.5956 -1.5959
C -1.6318 -1.5881 -1.5905
C -1.6290 -1.5906 -1.5921
C -1.6307 -1.5711 -1.5873
C -1.6318 -1.5743 -1.5888
C -1.6252 -1.5651 -1.5859
C -1.6245 -1.5622 -1.5846
C -1.6227 -1.5655 -1.5892
C -1.6242 -1.5706 -1.5890
C -1.6209 -1.5642 -1.5945
C -1.6203 -1.5633 -1.5866
C -1.6214 -1.5568 -1.5845
C -1.6174 -1.5689 -1.5872
C -1.6160 -1.5731 -1.5896
C -1.6167 -1.5689 -1.5861
C -1.6184 -1.5675 -1.5836
C -1.6177 -1.5740 -1.5876
C -1.6147 -1.5778 -1.5792
C -1.6239 -1.5625 -1.5893
C -1.6229 -1.5556 -1.5947
C -1.6248 -1.5633 -1.5819
C -1.6290 -1.5599 -1.5928
C -1.6179 -1.5834 -1.5960
C -1.6141 -1.5913 -1.5957
C -1.6125 -1.5660 -1.5862
C -1.6091 -1.5683 -1.5888
C -1.6126 -1.5625 -1.5824
C -1.6178 -1.5651 -1.5797
C -1.6080 -1.5581 -1.5809
C -1.6051 -1.5575 -1.5809
C -1.6095 -1.5523 -1.5773
C -1.6120 -1.5556 -1.5759
C -1.6064 -1.5485 -1.5774
C -1.6111 -1.5492 -1.5747
C -1.6183 -1.5502 -1.5789
C -1.6225 -1.5527 -1.5847
C -1.6198 -1.5467 -1.5743
C -1.6243 -1.5461 -1.5756
C -1.6134 -1.5431 -1.5672
C -1.6125 -1.5381 -1.5600
C -1.6181 -1.5370 -1.5592
C -1.6063 -1.5351 -1.5525
C -1.6051 -1.5310 -1.5472
C -1.6001 -1.5367 -1.5523
C -1.5952 -1.5343 -1.5465
C -1.6009 -1.5416 -1.5598
C -1.5970 -1.5431 -1.5601
C -1.6077 -1.5447 -1.5669
C -1.6039 -1.5605 -1.5815
C -1.6055 -1.5638 -1.5800
C -1.5991 -1.5588 -1.5830
C -1.5983 -1.5567 -1.5848
C -1.5949 -1.5609 -1.5829
C -1.5904 -1.5588 -1.5833
C -1.5954 -1.5598 -1.5820
C -1.5971 -1.5671 -1.5834
C -1.5990 -1.5699 -1.5848
C -1.5965 -1.5704 -1.5840
138
REAL frame=94
C -1.6070 -1.5740 -1.5814
C -1.6092 -1.5742 -1.5804
C -1.6081 -1.5687 -1.5829
C -1.6047 -1.5745 -1.5809
C -1.6063 -1.5774 -1.5825
C -1.6033 -1.5787 -1.5836
C -1.6086 -1.5788 -1.5832
C -1.6076 -1.5775 -1.5825
C -1.6123 -1.5803 -1.5801
C -1.6045 -1.5744 -1.5847
C -1.6009 -1.5717 -1.5865
C -1.6060 -1.5730 -1.5863
C -1.6086 -1.5704 -1.5837
C -1.6020 -1.5683 -1.5881
C -1.6002 -1.5619 -1.5855
C -1.5988 -1.5722 -1.5892
C -1.6046 -1.5665 -1.5926
C -1.6060 -1.5744 -1.5961
C -1.6033 -1.5819 -1.5958
C -1.6090 -1.5725 -1.6005
C -1.6093 -1.5785 -1.6034
C -1.6132 -1.5627 -1.6007
C -1.6190 -1.5603 -1.6030
C -1.6209 -1.5571 -1.5928
C -1.6130 -1.5546 -1.5968
C -1.6177 -1.5466 -1.5967
C -1.6081 -1.5568 -1.5927
C -1.6102 -1.5506 -1.5894
C -1.6083 -1.5780 -1.5894
C -1.6100 -1.5842 -1.5888
C -1.6084 -1.5766 -1.5927
C -1.6065 -1.5720 -1.5918
C -1.6090 -1.5809 -1.5961
C -1.6063 -1.5816 -1.5999
C -1.6122 -1.5864 -1.5963
C -1.6114 -1.5899 -1.5957
C -1.6126 -1.5907 -1.5961
C -1.6163 -1.5814 -1.5951
C -1.6145 -1.5769 -1.5948
C -1.6232 -1.5832 -1.5941
C -1.6100 -1.5783 -1.5935
C -1.6130 -1.5760 -1.5903
C -1.6099 -1.5783 -1.5941
C -1.6067 -1.5812 -1.5970
C -1.6089 -1.5830 -1.5978
C -1.6024 -1.5803 -1.5976
C -1.6064 -1.5810 -1.5976
C -1.6099 -1.5829 -1.5978
C -1.6026 -1.5805 -1.5994
C -1.6079 -1.5763 -1.5938
C -1.6076 -1.5758 -1.5938
C -1.6038 -1.5751 -1.5922
C -1.6121 -1.5746 -1.5917
C -1.6112 -1.5698 -1.5898
C -1.6186 -1.5759 -1.5905
C -1.6203 -1.5732 -1.5889
C -1.6216 -1.5793 -1.5909
C -1.6199 -1.5810 -1.5915
C -1.6292 -1.5813 -1.5916
C -1.6325 -1.5797 -1.5916
C -1.6295 -1.5900 -1.5948
C -1.6285 -1.5911 -1.5938
C -1.6348 -1.5913 -1.5960
C -1.6245 -1.5940 -1.5979
C -1.6196 -1.5944 -1.5985
C -1.6268 -1.5994 -1.5996
C -1.6243 -1.5902 -1.5966
C -1.6190 -1.5874 -1.5965
C -1.6306 -1.5877 -1.5959
C -1.6330 -1.5768 -1.5900
C -1.6368 -1.5737 -1.5890
C -1.6318 -1.5769 -1.5892
C -1.6272 -1.5791 -1.5906
C -1.6351 -1.5752 -1.5876
C -1.6404 -1.5719 -1.5838
C -1.6380 -1.5823 -1.5886
C -1.6403 -1.5789 -1.5873
C -1.6436 -1.5871 -1.5893
C -1.6412 -1.5808 -1.5923
C -1.6481 -1.5889 -1.5815
C -1.6470 -1.5951 -1.5960
C -1.6318 -1.5882 -1.5906
C -1.6291 -1.5906 -1.5922
C -1.6307 -1.5712 -1.5872
C -1.6317 -1.5742 -1.5888
C -1.6252 -1.5650 -1.5858
C -1.6242 -1.5625 -1.5847
C -1.6227 -1.5654 -1.5892
C -1.6248 -1.5702 -1.5893
C -1.6212 -1.5636 -1.5945
C -1.6203 -1.5632 -1.5869
C -1.6214 -1.5568 -1.5845
C -1.6175 -1.5687 -1.5873
C -1.6158 -1.5732 -1.5897
C -1.6167 -1.5688 -1.5860
C -1.6183 -1.5669 -1.5838
C -1.6179 -1.5740 -1.5875
C -1.6147 -1.5777 -1.5791
C -1.6239 -1.5625 -1.5894
C -1.6227 -1.5556 -1.5946
C -1.6250 -1.5631 -1.5819
C -1.6290 -1.5601 -1.5925
C -1.6179 -1.5834 -1.5960
C -1.6139 -1.5913 -1.5954
C -1.6122 -1.5661 -1.5862
C -1.6090 -1.5684 -1.5888
C -1.6126 -1.5625 -1.5824
C -1.6175 -1.5650 -1.5794
C -1.6080 -1.5580 -1.5810
C -1.6051 -1.5573 -1.5810
C -1.6095 -1.5525 -1.5772
C -1.6126 -1.5550 -1.5757
C -1.6061 -1.5478 -1.5776
C -1.6111 -1.5492 -1.5747
C -1.6183 -1.5500 -1.5789
C -1.6222 -1.5526 -1.5847
C -1.6199 -1.5468 -1.5743
C -1.6244 -1.5461 -1.5752
C -1.6135 -1.5431 -1.5672
C -1.6125 -1.5381 -1.5600
C -1.6179 -1.5369 -1.5593
C -1.6062 -1.5352 -1.5526
C -1.6053 -1.5314 -1.5471
C -1.6001 -1.5367 -1.5523
C -1.5955 -1.5348 -1.5466
C -1.6011 -1.5414 -1.5598
C -1.5970 -1.5429 -1.5601
C -1.6078 -1.5447 -1.5669
C -1.6040 -1.5605 -1.5815
C -1.6054 -1.5638 -1.5801
C -1.5992 -1.5588 -1.5830
C -1.5982 -1.5566 -1.5846
C -1.5950 -1.5609 -1.5830
C -1.5904 -1.5588 -1.5830
C -1.5952 -1.5600 -1.5821
C -1.5971 -1.5670 -1.5833
C -1.5990 -1.5699 -1.5846
C -1.5966 -1.5703 -1.5841
138
REAL frame=95
C -1.6071 -1.5738 -1.5813
C -1.6095 -1.5744 -1.5805
C -1.6080 -1.5688 -1.5826
C -1.6046 -1.5746 -1.5816
C -1.6063 -1.5775 -1.5826
C -1.6031 -1.5786 -1.5835
C -1.6084 -1.5793 -1.5833
C -1.6077 -1.5774 -1.5826
C -1.6123 -1.5804 -1.5800
C -1.6045 -1.5744 -1.5847
C -1.6008 -1.5715 -1.5868
C -1.6060 -1.5730 -1.5864
C -1.6087 -1.5704 -1.5838
C -1.6019 -1.5684 -1.5882
C -1.6004 -1.5619 -1.5852
C -1.5990 -1.5725 -1.5890
C -1.6046 -1.5665 -1.5927
C -1.6059 -1.5745 -1.5961
C -1.6030 -1.5818 -1.5961
C -1.6090 -1.5726 -1.6004
C -1.6093 -1.5788 -1.6033
C -1.6131 -1.5628 -1.6008
C -1.6190 -1.5603 -1.6030
C -1.6215 -1.5575 -1.5927
C -1.6131 -1.5547 -1.5968
C -1.6179 -1.5470 -1.5962
C -1.6080 -1.5566 -1.5927
C -1.6096 -1.5503 -1.5894
C -1.6084 -1.5778 -1.5894
C -1.6100 -1.5842 -1.5888
C -1.6084 -1.5765 -1.5927
C -1.6066 -1.5715 -1.5921
C -1.6087 -1.5808 -1.5960
C -1.6060 -1.5819 -1.5996
C -1.6123 -1.5864 -1.5964
C -1.6119 -1.5904 -1.5955
C -1.6128 -1.5907 -1.5961
C -1.6163 -1.5813 -1.5952
C -1.6146 -1.5769 -1.5948
C -1.6232 -1.5834 -1.5942
C -1.6100 -1.5782 -1.5936
C -1.6131 -1.5762 -1.5904
C -1.6098 -1.5782 -1.5941
C -1.6067 -1.5814 -1.5969
C -1.6091 -1.5833 -1.5986
C -1.6025 -1.5806 -1.5974
C -1.6064 -1.5810 -1.5976
C -1.6101 -1.5834 -1.5975
C -1.6025 -1.5804 -1.5995
C -1.6079 -1.5762 -1.5938
C -1.6076 -1.5758 -1.5941
C -1.6038 -1.5749 -1.5920
C -1.6122 -1.5746 -1.5917
C -1.6112 -1.5704 -1.5896
C -1.6186 -1.5760 -1.5903
C -1.6203 -1.5731 -1.5889
C -1.6216 -1.5794 -1.5910
C -1.6199 -1.5813 -1.5922
C -1.6292 -1.5813 -1.5916
C -1.6327 -1.5796 -1.5915
C -1.6295 -1.5900 -1.5947
C -1.6283 -1.5911 -1.5937
C -1.6347 -1.5910 -1.5962
C -1.6246 -1.5938 -1.5978
C -1.6198 -1.5944 -1.5983
C -1.6269 -1.5991 -1.5993
C -1.6246 -1.5903 -1.5964
C -1.6190 -1.5875 -1.5965
C -1.6306 -1.5877 -1.5960
C -1.6332 -1.5766 -1.5900
C -1.6369 -1.5737 -1.5890
C -1.6317 -1.5768 -1.5892
C -1.6270 -1.5791 -1.5904
C -1.6351 -1.5752 -1.5876
C -1.6404 -1.5721 -1.5835
C -1.6380 -1.5821 -1.5886
C -1.6399 -1.5792 -1.5871
C -1.6436 -1.5871 -1.5894
C -1.6417 -1.5808 -1.5916
C -1.6480 -1.5891 -1.5815
C -1.6474 -1.5945 -1.5962
C -1.6318 -1.5883 -1.5908
C -1.6292 -1.5906 -1.5924
C -1.6307 -1.5714 -1.5870
C -1.6316 -1.5741 -1.5888
C -1.6253 -1.5650 -1.5857
C -1.6238 -1.5628 -1.5848
C -1.6227 -1.5654 -1.5891
C -1.6255 -1.5697 -1.5896
C -1.6213 -1.5631 -1.5942
C -1.6203 -1.5631 -1.5872
C -1.6214 -1.5568 -1.5846
C -1.6176 -1.5685 -1.5873
C -1.6158 -1.5734 -1.5896
C -1.6166 -1.5686 -1.5860
C -1.6183 -1.5664 -1.5840
C -1.6181 -1.5739 -1.5874
C -1.6146 -1.5777 -1.5792
C -1.6239 -1.5626 -1.5895
C -1.6224 -1.5555 -1.5947
C -1.6252 -1.5631 -1.5819
C -1.6290 -1.5603 -1.5920
C -1.6179 -1.5834 -1.5960
C -1.6138 -1.5913 -1.5954
C -1.6120 -1.5661 -1.5863
C -1.6089 -1.5684 -1.5888
C -1.6127 -1.5625 -1.5824
C -1.6171 -1.5648 -1.5790
C -1.6078 -1.5579 -1.5810
C -1.6052 -1.5570 -1.5812
C -1.6095 -1.5527 -1.5771
C -1.6131 -1.5542 -1.5754
C -1.6059 -1.5473 -1.5779
C -1.6110 -1.5492 -1.5747
C -1.6182 -1.5499 -1.5789
C -1.6220 -1.5527 -1.5847
C -1.6199 -1.5469 -1.5743
C -1.6246 -1.5462 -1.5750
C -1.6135 -1.5430 -1.5671
C -1.6125 -1.5381 -1.5601
C -1.6175 -1.5368 -1.5596
C -1.6061 -1.5353 -1.5527
C -1.6057 -1.5319 -1.5469
C -1.6002 -1.5368 -1.5523
C -1.5958 -1.5352 -1.5467
C -1.6012 -1.5413 -1.5597
C -1.5969 -1.5426 -1.5600
C -1.6079 -1.5446 -1.5670
C -1.6041 -1.5606 -1.5815
C -1.6054 -1.5639 -1.5802
C -1.5993 -1.5587 -1.5831
C -1.5982 -1.5564 -1.5843
C -1.5951 -1.5609 -1.5831
C -1.5906 -1.5589 -1.5830
C -1.5950 -1.5601 -1.5821
C -1.5971 -1.5669 -1.5832
C -1.5989 -1.5700 -1.5843
C -1.5967 -1.5703 -1.5842
138
REAL frame=96
C -1.6072 -1.5736 -1.5812
C -1.6099 -1.5749 -1.5803
C -1.6077 -1.5690 -1.5823
C -1.6045 -1.5745 -1.5820
C -1.6063 -1.5776 -1.5828
C -1.6028 -1.5785 -1.5834
C -1.6082 -1.5800 -1.5832
C -1.6078 -1.5774 -1.5826
C -1.6123 -1.5804 -1.5800
C -1.6046 -1.5743 -1.5848
C -1.6009 -1.5714 -1.5869
C -1.6061 -1.5729 -1.5864
C -1.6087 -1.5703 -1.5839
C -1.6017 -1.5684 -1.5883
C -1.6004 -1.5619 -1.5851
C -1.5991 -1.5729 -1.5887
C -1.6047 -1.5665 -1.5927
C -1.6056 -1.5745 -1.5961
C -1.6028 -1.5817 -1.5963
C -1.6091 -1.5727 -1.6003
C -1.6094 -1.5790 -1.6032
C -1.6130 -1.5629 -1.6008
C -1.6190 -1.5602 -1.6030
C -1.6219 -1.5577 -1.5928
C -1.6131 -1.5548 -1.5969
C -1.6180 -1.5473 -1.5957
C -1.6080 -1.5565 -1.5927
C -1.6089 -1.5500 -1.5895
C -1.6085 -1.5777 -1.5894
C -1.6100 -1.5842 -1.5888
C -1.6084 -1.5763 -1.5927
C -1.6069 -1.5709 -1.5923
C -1.6085 -1.5808 -1.5960
C -1.6057 -1.5821 -1.5994
C -1.6124 -1.5864 -1.5964
C -1.6122 -1.5910 -1.5955
C -1.6129 -1.5908 -1.5963
C -1.6163 -1.5812 -1.5951
C -1.6146 -1.5769 -1.5948
C -1.6232 -1.5835 -1.5943
C -1.6100 -1.5782 -1.5937
C -1.6132 -1.5763 -1.5905
C -1.6096 -1.5780 -1.5941
C -1.6067 -1.5815 -1.5969
C -1.6090 -1.5838 -1.5994
C -1.6028 -1.5810 -1.5971
C -1.6065 -1.5810 -1.5976
C -1.6103 -1.5839 -1.5975
C -1.6024 -1.5806 -1.5994
C -1.6079 -1.5760 -1.5938
C -1.6078 -1.5758 -1.5943
C -1.6037 -1.5747 -1.5918
C -1.6123 -1.5747 -1.5918
C -1.6113 -1.5710 -1.5895
C -1.6186 -1.5759 -1.5901
C -1.6204 -1.5730 -1.5889
C -1.6217 -1.5794 -1.5911
C -1.6197 -1.5815 -1.5929
C -1.6292 -1.5813 -1.5916
C -1.6326 -1.5796 -1.5914
C -1.6296 -1.5899 -1.5947
C -1.6283 -1.5912 -1.5937
C -1.6346 -1.5908 -1.5963
C -1.6246 -1.5938 -1.5977
C -1.6199 -1.5944 -1.5981
C -1.6270 -1.5988 -1.5992
C -1.6249 -1.5902 -1.5962
C -1.6191 -1.5876 -1.5964
C -1.6305 -1.5877 -1.5960
C -1.6334 -1.5765 -1.5900
C -1.6369 -1.5737 -1.5890
C -1.6317 -1.5768 -1.5893
C -1.6270 -1.5791 -1.5903
C -1.6351 -1.5753 -1.5875
C -1.6402 -1.5720 -1.5836
C -1.6380 -1.5819 -1.5885
C -1.6396 -1.5796 -1.5870
C -1.6436 -1.5870 -1.5895
C -1.6420 -1.5809 -1.5910
C -1.6478 -1.5895 -1.5813
C -1.6474 -1.5940 -1.5964
C -1.6318 -1.5883 -1.5909
C -1.6291 -1.5904 -1.5925
C -1.6306 -1.5715 -1.5870
C -1.6315 -1.5740 -1.5887
C -1.6254 -1.5650 -1.5856
C -1.6236 -1.5630 -1.5848
C -1.6227 -1.5653 -1.5890
C -1.6260 -1.5690 -1.5900
C -1.6214 -1.5629 -1.5937
C -1.6202 -1.5631 -1.5873
C -1.6214 -1.5568 -1.5847
C -1.6176 -1.5684 -1.5874
C -1.6159 -1.5736 -1.5894
C -1.6166 -1.5684 -1.5860
C -1.6183 -1.5659 -1.5843
C -1.6182 -1.5738 -1.5873
C -1.6146 -1.5777 -1.5794
C -1.6239 -1.5626 -1.5896
C -1.6221 -1.5555 -1.5950
C -1.6252 -1.5631 -1.5820
C -1.6289 -1.5605 -1.5916
C -1.6179 -1.5835 -1.5960
C -1.6139 -1.5912 -1.5958
C -1.6118 -1.5662 -1.5863
C -1.6088 -1.5683 -1.5887
C -1.6128 -1.5625 -1.5823
C -1.6166 -1.5644 -1.5788
C -1.6077 -1.5579 -1.5810
C -1.6055 -1.5566 -1.5814
C -1.6095 -1.5529 -1.5771
C -1.6133 -1.5535 -1.5751
C -1.6059 -1.5474 -1.5781
C -1.6111 -1.5492 -1.5748
C -1.6181 -1.5499 -1.5789
C -1.6219 -1.5527 -1.5847
C -1.6200 -1.5469 -1.5742
C -1.6249 -1.5463 -1.5752
C -1.6135 -1.5429 -1.5669
C -1.6125 -1.5381 -1.5601
C -1.6171 -1.5368 -1.5601
C -1.6060 -1.5354 -1.5528
C -1.6060 -1.5324 -1.5468
C -1.6002 -1.5370 -1.5524
C -1.5960 -1.5355 -1.5468
C -1.6013 -1.5411 -1.5596
C -1.5969 -1.5424 -1.5597
C -1.6080 -1.5446 -1.5671
C -1.6042 -1.5606 -1.5814
C -1.6054 -1.5639 -1.5803
C -1.5994 -1.5586 -1.5831
C -1.5983 -1.5561 -1.5839
C -1.5952 -1.5609 -1.5831
C -1.5907 -1.5591 -1.5832
C -1.5948 -1.5602 -1.5821
C -1.5971 -1.5669 -1.5833
C -1.5988 -1.5700 -1.5841
C -1.5967 -1.5703 -1.5843
138
REAL frame=97
C -1.6073 -1.5734 -1.5811
C -1.6101 -1.5755 -1.5799
C -1.6075 -1.5693 -1.5821
C -1.6046 -1.5743 -1.5820
C -1.6063 -1.5776 -1.5829
C -1.6025 -1.5782 -1.5835
C -1.6079 -1.5807 -1.5831
C -1.6079 -1.5773 -1.5827
C -1.6122 -1.5805 -1.5800
C -1.6047 -1.5741 -1.5849
C -1.6011 -1.5716 -1.5866
C -1.6062 -1.5728 -1.5865
C -1.6085 -1.5701 -1.5840
C -1.6016 -1.5685 -1.5883
C -1.6002 -1.5617 -1.5852
C -1.5991 -1.5732 -1.5884
C -1.6047 -1.5665 -1.5927
C -1.6054 -1.5745 -1.5961
C -1.6027 -1.5817 -1.5963
C -1.6092 -1.5728 -1.6002
C -1.6094 -1.5791 -1.6031
C -1.6129 -1.5629 -1.6007
C -1.6191 -1.5601 -1.6031
C -1.6224 -1.5578 -1.5929
C -1.6131 -1.5549 -1.5969
C -1.6179 -1.5475 -1.5956
C -1.6081 -1.5564 -1.5927
C -1.6081 -1.5497 -1.5897
C -1.6085 -1.5778 -1.5894
C -1.6100 -1.5841 -1.5888
C -1.6083 -1.5761 -1.5926
C -1.6070 -1.5703 -1.5925
C -1.6084 -1.5807 -1.5960
C -1.6053 -1.5821 -1.5993
C -1.6125 -1.5864 -1.5963
C -1.6122 -1.5916 -1.5958
C -1.6129 -1.5909 -1.5967
C -1.6163 -1.5812 -1.5951
C -1.6147 -1.5769 -1.5948
C -1.6232 -1.5837 -1.5944
C -1.6100 -1.5782 -1.5938
C -1.6132 -1.5764 -1.5905
C -1.6094 -1.5779 -1.5941
C -1.6067 -1.5816 -1.5970
C -1.6089 -1.5844 -1.6000
C -1.6030 -1.5814 -1.5968
C -1.6065 -1.5811 -1.5975
C -1.6104 -1.5843 -1.5976
C -1.6024 -1.5809 -1.5992
C -1.6078 -1.5759 -1.5938
C -1.6082 -1.5758 -1.5944
C -1.6037 -1.5745 -1.5917
C -1.6124 -1.5748 -1.5920
C -1.6114 -1.5714 -1.5894
C -1.6185 -1.5758 -1.5901
C -1.6205 -1.5730 -1.5889
C -1.6217 -1.5795 -1.5911
C -1.6197 -1.5817 -1.5935
C -1.6292 -1.5813 -1.5917
C -1.6322 -1.5796 -1.5915
C -1.6296 -1.5898 -1.5946
C -1.6283 -1.5913 -1.5940
C -1.6345 -1.5906 -1.5961
C -1.6248 -1.5937 -1.5975
C -1.6199 -1.5943 -1.5979
C -1.6270 -1.5985 -1.5993
C -1.6251 -1.5900 -1.5961
C -1.6191 -1.5877 -1.5963
C -1.6304 -1.5878 -1.5961
C -1.6336 -1.5765 -1.5900
C -1.6369 -1.5736 -1.5890
C -1.6316 -1.5766 -1.5894
C -1.6270 -1.5791 -1.5903
C -1.6352 -1.5753 -1.5874
C -1.6398 -1.5718 -1.5841
C -1.6379 -1.5818 -1.5885
C -1.6397 -1.5800 -1.5869
C -1.6437 -1.5870 -1.5896
C -1.6422 -1.5810 -1.5903
C -1.6474 -1.5899 -1.5809
C -1.6472 -1.5935 -1.5967
C -1.6319 -1.5883 -1.5910
C -1.6291 -1.5903 -1.5926
C -1.6306 -1.5716 -1.5870
C -1.6314 -1.5740 -1.5886
C -1.6254 -1.5650 -1.5854
C -1.6237 -1.5630 -1.5847
C -1.6228 -1.5652 -1.5890
C -1.6262 -1.5685 -1.5904
C -1.6212 -1.5628 -1.5931
C -1.6202 -1.5631 -1.5873
C -1.6214 -1.5569 -1.5848
C -1.6177 -1.5682 -1.5875
C -1.6162 -1.5738 -1.5892
C -1.6166 -1.5683 -1.5861
C -1.6183 -1.5655 -1.5845
C -1.6182 -1.5737 -1.5872
C -1.6147 -1.5777 -1.5797
C -1.6240 -1.5626 -1.5895
C -1.6219 -1.5556 -1.5954
C -1.6251 -1.5632 -1.5821
C -1.6290 -1.5606 -1.5912
C -1.6179 -1.5836 -1.5961
C -1.6141 -1.5910 -1.5964
C -1.6117 -1.5663 -1.5864
C -1.6087 -1.5682 -1.5887
C -1.6128 -1.5625 -1.5822
C -1.6163 -1.5638 -1.5788
C -1.6076 -1.5579 -1.5810
C -1.6057 -1.5562 -1.5815
C -1.6094 -1.5529 -1.5770
C -1.6132 -1.5531 -1.5747
C -1.6059 -1.5479 -1.5781
C -1.6112 -1.5492 -1.5748
C -1.6180 -1.5499 -1.5789
C -1.6219 -1.5528 -1.5847
C -1.6200 -1.5468 -1.5741
C -1.6252 -1.5466 -1.5756
C -1.6136 -1.5428 -1.5668
C -1.6125 -1.5382 -1.5601
C -1.6167 -1.5368 -1.5606
C -1.6059 -1.5355 -1.5529
C -1.6064 -1.5326 -1.5469
C -1.6003 -1.5371 -1.5525
C -1.5961 -1.5356 -1.5469
C -1.6014 -1.5410 -1.5596
C -1.5968 -1.5422 -1.5593
C -1.6081 -1.5446 -1.5671
C -1.6043 -1.5606 -1.5814
C -1.6054 -1.5640 -1.5804
C -1.5994 -1.5586 -1.5832
C -1.5984 -1.5558 -1.5836
C -1.5953 -1.5609 -1.5831
C -1.5909 -1.5592 -1.5837
C -1.5948 -1.5601 -1.5821
C -1.5970 -1.5670 -1.5834
C -1.5987 -1.5700 -1.5838
C -1.5968 -1.5702 -1.5843
138
REAL frame=98
C -1.6075 -1.5733 -1.5812
C -1.6101 -1.5761 -1.5794
C -1.6074 -1.5695 -1.5820
C -1.6048 -1.5740 -1.5816
C -1.6062 -1.5777 -1.5830
C -1.6022 -1.5779 -1.5836
C -1.6076 -1.5813 -1.5829
C -1.6080 -1.5773 -1.5827
C -1.6121 -1.5805 -1.5800
C -1.6047 -1.5740 -1.5850
C -1.6014 -1.5718 -1.5863
C -1.6062 -1.5727 -1.5866
C -1.6083 -1.5698 -1.5842
C -1.6015 -1.5686 -1.5883
C -1.5999 -1.5616 -1.5855
C -1.5990 -1.5734 -1.5881
C -1.6047 -1.5665 -1.5926
C -1.6051 -1.5745 -1.5963
C -1.6025 -1.5818 -1.5961
C -1.6093 -1.5729 -1.6002
C -1.6095 -1.5791 -1.6031
C -1.6129 -1.5629 -1.6006
C -1.6191 -1.5600 -1.6031
C -1.6227 -1.5577 -1.5932
C -1.6132 -1.5550 -1.5968
C -1.6177 -1.5474 -1.5957
C -1.6081 -1.5564 -1.5928
C -1.6074 -1.5496 -1.5899
C -1.6086 -1.5779 -1.5894
C -1.6100 -1.5841 -1.5888
C -1.6082 -1.5759 -1.5924
C -1.6071 -1.5699 -1.5926
C -1.6084 -1.5807 -1.5960
C -1.6048 -1.5821 -1.5993
C -1.6125 -1.5865 -1.5963
C -1.6120 -1.5920 -1.5962
C -1.6129 -1.5911 -1.5971
C -1.6163 -1.5812 -1.5951
C -1.6147 -1.5769 -1.5949
C -1.6233 -1.5838 -1.5944
C -1.6100 -1.5782 -1.5939
C -1.6133 -1.5765 -1.5906
C -1.6093 -1.5778 -1.5942
C -1.6067 -1.5816 -1.5971
C -1.6087 -1.5849 -1.6003
C -1.6032 -1.5817 -1.5966
C -1.6066 -1.5811 -1.5974
C -1.6105 -1.5846 -1.5980
C -1.6025 -1.5813 -1.5989
C -1.6078 -1.5758 -1.5937
C -1.6087 -1.5757 -1.5943
C -1.6036 -1.5742 -1.5917
C -1.6124 -1.5749 -1.5921
C -1.6115 -1.5716 -1.5894
C -1.6185 -1.5756 -1.5901
C -1.6206 -1.5730 -1.5889
C -1.6218 -1.5796 -1.5912
C -1.6197 -1.5818 -1.5939
C -1.6292 -1.5813 -1.5918
C -1.6317 -1.5796 -1.5918
C -1.6296 -1.5897 -1.5945
C -1.6284 -1.5915 -1.5944
C -1.6345 -1.5905 -1.5958
C -1.6249 -1.5937 -1.5972
C -1.6199 -1.5942 -1.5978
C -1.6271 -1.5984 -1.5996
C -1.6253 -1.5898 -1.5961
C -1.6192 -1.5878 -1.5962
C -1.6304 -1.5879 -1.5960
C -1.6337 -1.5767 -1.5899
C -1.6369 -1.5735 -1.5890
C -1.6315 -1.5765 -1.5895
C -1.6271 -1.5790 -1.5905
C -1.6351 -1.5753 -1.5873
C -1.6392 -1.5715 -1.5849
C -1.6379 -1.5818 -1.5885
C -1.6400 -1.5803 -1.5869
C -1.6437 -1.5870 -1.5896
C -1.6423 -1.5811 -1.5898
C -1.6469 -1.5905 -1.5805
C -1.6466 -1.5930 -1.5969
C -1.6319 -1.5882 -1.5911
C -1.6289 -1.5901 -1.5927
C -1.6305 -1.5716 -1.5871
C -1.6313 -1.5741 -1.5885
C -1.6254 -1.5651 -1.5853
C -1.6241 -1.5628 -1.5845
C -1.6229 -1.5651 -1.5891
C -1.6261 -1.5681 -1.5906
C -1.6211 -1.5629 -1.5925
C -1.6201 -1.5630 -1.5872
C -1.6214 -1.5569 -1.5849
C -1.6178 -1.5681 -1.5876
C -1.6165 -1.5737 -1.5892
C -1.6166 -1.5682 -1.5862
C -1.6183 -1.5654 -1.5847
C -1.6181 -1.5736 -1.5871
C -1.6148 -1.5777 -1.5800
C -1.6241 -1.5625 -1.5895
C -1.6218 -1.5556 -1.5958
C -1.6248 -1.5633 -1.5821
C -1.6290 -1.5607 -1.5910
C -1.6178 -1.5837 -1.5961
C -1.6143 -1.5908 -1.5971
C -1.6118 -1.5663 -1.5864
C -1.6086 -1.5682 -1.5886
C -1.6128 -1.5626 -1.5820
C -1.6162 -1.5630 -1.5790
C -1.6075 -1.5579 -1.5809
C -1.6060 -1.5559 -1.5816
C -1.6094 -1.5529 -1.5770
C -1.6128 -1.5531 -1.5744
C -1.6061 -1.5488 -1.5780
C -1.6113 -1.5493 -1.5749
C -1.6179 -1.5500 -1.5790
C -1.6220 -1.5529 -1.5847
C -1.6201 -1.5467 -1.5739
C -1.6256 -1.5468 -1.5761
C -1.6137 -1.5427 -1.5666
C -1.6125 -1.5382 -1.5601
C -1.6164 -1.5368 -1.5609
C -1.6059 -1.5355 -1.5530
C -1.6066 -1.5327 -1.5470
C -1.6004 -1.5373 -1.5526
C -1.5961 -1.5356 -1.5469
C -1.6016 -1.5410 -1.5596
C -1.5968 -1.5421 -1.5589
C -1.6081 -1.5445 -1.5671
C -1.6044 -1.5605 -1.5814
C -1.6054 -1.5640 -1.5804
C -1.5994 -1.5586 -1.5832
C -1.5985 -1.5556 -1.5833
C -1.5954 -1.5609 -1.5831
C -1.5912 -1.5594 -1.5843
C -1.5949 -1.5600 -1.5820
C -1.5970 -1.5671 -1.5834
C -1.5986 -1.5699 -1.5836
C -1.5969 -1.5702 -1.5843
138
REAL frame=99
C -1.6077 -1.5732 -1.5812
C -1.6100 -1.5766 -1.5789
C -1.6075 -1.5695 -1.5818
C -1.6051 -1.5737 -1.5810
C -1.6062 -1.5777 -1.5831
C -1.6019 -1.5775 -1.5838
C -1.6072 -1.5818 -1.5829
C -1.6081 -1.5774 -1.5827
C -1.6121 -1.5806 -1.5800
C -1.6049 -1.5739 -1.5851
C -1.6017 -1.5719 -1.5859
C -1.6063 -1.5725 -1.5866
C -1.6081 -1.5696 -1.5844
C -1.6015 -1.5687 -1.5883
C -1.5995 -1.5614 -1.5859
C -1.5987 -1.5735 -1.5880
C -1.6047 -1.5665 -1.5925
C -1.6049 -1.5745 -1.5964
C -1.6024 -1.5819 -1.5959
C -1.6094 -1.5730 -1.6002
C -1.6097 -1.5790 -1.6031
C -1.6128 -1.5629 -1.6006
C -1.6192 -1.5600 -1.6032
C -1.6230 -1.5576 -1.5936
C -1.6132 -1.5550 -1.5967
C -1.6174 -1.5473 -1.5962
C -1.6082 -1.5565 -1.5928
C -1.6067 -1.5497 -1.5902
C -1.6087 -1.5781 -1.5894
C -1.6100 -1.5840 -1.5889
C -1.6080 -1.5757 -1.5923
C -1.6069 -1.5697 -1.5924
C -1.6084 -1.5807 -1.5961
C -1.6044 -1.5819 -1.5995
C -1.6125 -1.5866 -1.5963
C -1.6117 -1.5922 -1.5966
C -1.6128 -1.5913 -1.5974
C -1.6164 -1.5812 -1.5950
C -1.6148 -1.5768 -1.5950
C -1.6233 -1.5840 -1.5944
C -1.6101 -1.5783 -1.5939
C -1.6133 -1.5766 -1.5906
C -1.6093 -1.5779 -1.5943
C -1.6067 -1.5816 -1.5972
C -1.6085 -1.5853 -1.6002
C -1.6033 -1.5819 -1.5966
C -1.6066 -1.5812 -1.5973
C -1.6105 -1.5847 -1.5985
C -1.6025 -1.5819 -1.5985
C -1.6078 -1.5757 -1.5937
C -1.6094 -1.5756 -1.5940
C -1.6035 -1.5739 -1.5918
C -1.6124 -1.5749 -1.5922
C -1.6115 -1.5716 -1.5895
C -1.6184 -1.5754 -1.5901
C -1.6208 -1.5730 -1.5888
C -1.6219 -1.5796 -1.5912
C -1.6200 -1.5819 -1.5942
C -1.6293 -1.5813 -1.5919
C -1.6312 -1.5798 -1.5920
C -1.6296 -1.5896 -1.5945
C -1.6285 -1.5916 -1.5947
C -1.6345 -1.5904 -1.5953
C -1.6251 -1.5937 -1.5969
C -1.6198 -1.5940 -1.5977
C -1.6271 -1.5984 -1.5998
C -1.6254 -1.5897 -1.5962
C -1.6193 -1.5879 -1.5961
C -1.6304 -1.5878 -1.5960
C -1.6338 -1.5768 -1.5898
C -1.6370 -1.5734 -1.5890
C -1.6315 -1.5765 -1.5895
C -1.6273 -1.5788 -1.5909
C -1.6351 -1.5753 -1.5872
C -1.6387 -1.5713 -1.5857
C -1.6380 -1.5820 -1.5886
C -1.6405 -1.5805 -1.5870
C -1.6437 -1.5869 -1.5896
C -1.6423 -1.5812 -1.5894
C -1.6465 -1.5911 -1.5804
C -1.6460 -1.5927 -1.5970
C -1.6320 -1.5880 -1.5912
C -1.6288 -1.5899 -1.5927
C -1.6305 -1.5716 -1.5872
C -1.6312 -1.5741 -1.5883
C -1.6254 -1.5650 -1.5853
C -1.6246 -1.5625 -1.5842
C -1.6230 -1.5649 -1.5891
C -1.6257 -1.5680 -1.5908
C -1.6209 -1.5630 -1.5920
C -1.6201 -1.5630 -1.5871
C -1.6213 -1.5569 -1.5851
C -1.6178 -1.5680 -1.5876
C -1.6169 -1.5732 -1.5892
C -1.6166 -1.5681 -1.5864
C -1.6182 -1.5654 -1.5848
C -1.6180 -1.5734 -1.5871
C -1.6149 -1.5777 -1.5802
C -1.6243 -1.5625 -1.5893
C -1.6220 -1.5557 -1.5961
C -1.6245 -1.5634 -1.5822
C -1.6291 -1.5607 -1.5910
C -1.6178 -1.5838 -1.5961
C -1.6144 -1.5905 -1.5976
C -1.6119 -1.5662 -1.5864
C -1.6085 -1.5681 -1.5886
C -1.6127 -1.5627 -1.5819
C -1.6161 -1.5621 -1.5795
C -1.6075 -1.5579 -1.5808
C -1.6060 -1.5558 -1.5815
C -1.6093 -1.5528 -1.5769
C -1.6124 -1.5535 -1.5743
C -1.6063 -1.5498 -1.5776
C -1.6114 -1.5494 -1.5750
C -1.6178 -1.5501 -1.5790
C -1.6221 -1.5529 -1.5847
C -1.6201 -1.5465 -1.5738
C -1.6259 -1.5470 -1.5764
C -1.6137 -1.5427 -1.5666
C -1.6125 -1.5382 -1.5601
C -1.6162 -1.5368 -1.5610
C -1.6058 -1.5356 -1.5530
C -1.6067 -1.5326 -1.5472
C -1.6004 -1.5373 -1.5526
C -1.5961 -1.5355 -1.5470
C -1.6016 -1.5410 -1.5596
C -1.5969 -1.5421 -1.5586
C -1.6082 -1.5444 -1.5671
C -1.6044 -1.5604 -1.5815
C -1.6055 -1.5641 -1.5805
C -1.5994 -1.5585 -1.5832
C -1.5985 -1.5555 -1.5832
C -1.5954 -1.5609 -1.5831
C -1.5914 -1.5594 -1.5848
C -1.5951 -1.5598 -1.5819
C -1.5969 -1.5673 -1.5835
C -1.5985 -1.5698 -1.5835
C -1.5969 -1.5701 -1.5843
138
REAL frame=100
C -1.6078 -1.5732 -1.5813
C -1.6098 -1.5768 -1.5785
C -1.6077 -1.5694 -1.5817
C -1.6054 -1.5734 -1.5803
C -1.6061 -1.5778 -1.5831
C -1.6016 -1.5770 -1.5839
C -1.6069 -1.5822 -1.5830
C -1.6081 -1.5775 -1.5827
C -1.6121 -1.5805 -1.5800
C -1.6050 -1.5738 -1.5852
C -1.6019 -1.5718 -1.5856
C -1.6063 -1.5724 -1.5867
C -1.6079 -1.5693 -1.5846
C -1.6015 -1.5687 -1.5883
C -1.5991 -1.5614 -1.5863
C -1.5983 -1.5735 -1.5880
C -1.6046 -1.5665 -1.5924
C -1.6046 -1.5746 -1.5964
C -1.6023 -1.5820 -1.5957
C -1.6094 -1.5730 -1.6002
C -1.6098 -1.5789 -1.6032
C -1.6128 -1.5629 -1.6006
C -1.6192 -1.5600 -1.6032
C -1.6232 -1.5573 -1.5940
C -1.6132 -1.5550 -1.5967
C -1.6171 -1.5471 -1.5967
C -1.6082 -1.5566 -1.5928
C -1.6062 -1.5499 -1.5904
C -1.6087 -1.5781 -1.5893
C -1.6101 -1.5839 -1.5889
C -1.6079 -1.5755 -1.5921
C -1.6066 -1.5698 -1.5921
C -1.6085 -1.5807 -1.5962
C -1.6041 -1.5817 -1.5997
C -1.6124 -1.5867 -1.5963
C -1.6112 -1.5921 -1.5969
C -1.6127 -1.5914 -1.5976
C -1.6164 -1.5813 -1.5951
C -1.6148 -1.5768 -1.5951
C -1.6233 -1.5840 -1.5944
C -1.6102 -1.5783 -1.5939
C -1.6133 -1.5766 -1.5906
C -1.6093 -1.5779 -1.5944
C -1.6067 -1.5817 -1.5974
C -1.6083 -1.5855 -1.5998
C -1.6033 -1.5819 -1.5967
C -1.6067 -1.5813 -1.5971
C -1.6104 -1.5847 -1.5989
C -1.6025 -1.5824 -1.5982
C -1.6078 -1.5756 -1.5936
C -1.6100 -1.5755 -1.5936
C -1.6034 -1.5735 -1.5921
C -1.6124 -1.5749 -1.5923
C -1.6115 -1.5713 -1.5897
C -1.6184 -1.5752 -1.5902
C -1.6209 -1.5730 -1.5888
C -1.6219 -1.5797 -1.5912
C -1.6204 -1.5820 -1.5943
C -1.6293 -1.5813 -1.5919
C -1.6307 -1.5800 -1.5923
C -1.6296 -1.5895 -1.5944
C -1.6286 -1.5916 -1.5949
C -1.6345 -1.5905 -1.5947
C -1.6253 -1.5937 -1.5967
C -1.6198 -1.5938 -1.5975
C -1.6272 -1.5985 -1.5999
C -1.6253 -1.5898 -1.5964
C -1.6194 -1.5880 -1.5959
C -1.6304 -1.5878 -1.5959
C -1.6339 -1.5769 -1.5898
C -1.6370 -1.5733 -1.5889
C -1.6314 -1.5764 -1.5895
C -1.6275 -1.5786 -1.5914
C -1.6350 -1.5752 -1.5872
C -1.6383 -1.5711 -1.5864
C -1.6380 -1.5822 -1.5887
C -1.6411 -1.5805 -1.5871
C -1.6437 -1.5869 -1.5895
C -1.6422 -1.5812 -1.5891
C -1.6463 -1.5916 -1.5805
C -1.6454 -1.5923 -1.5970
C -1.6321 -1.5878 -1.5913
C -1.6286 -1.5897 -1.5928
C -1.6305 -1.5715 -1.5872
C -1.6312 -1.5742 -1.5882
C -1.6254 -1.5650 -1.5852
C -1.6252 -1.5622 -1.5839
C -1.6231 -1.5648 -1.5892
C -1.6250 -1.5680 -1.5909
C -1.6208 -1.5631 -1.5917
C -1.6202 -1.5630 -1.5871
C -1.6213 -1.5568 -1.5852
C -1.6179 -1.5681 -1.5877
C -1.6173 -1.5726 -1.5894
C -1.6165 -1.5680 -1.5866
C -1.6182 -1.5656 -1.5848
C -1.6178 -1.5732 -1.5871
C -1.6149 -1.5775 -1.5801
C -1.6244 -1.5624 -1.5892
C -1.6224 -1.5558 -1.5962
C -1.6242 -1.5632 -1.5823
C -1.6292 -1.5606 -1.5912
C -1.6178 -1.5839 -1.5961
C -1.6144 -1.5901 -1.5980
C -1.6120 -1.5661 -1.5863
C -1.6084 -1.5680 -1.5885
C -1.6126 -1.5628 -1.5818
C -1.6159 -1.5613 -1.5800
C -1.6075 -1.5579 -1.5807
C -1.6060 -1.5560 -1.5814
C -1.6092 -1.5527 -1.5769
C -1.6119 -1.5542 -1.5744
C -1.6067 -1.5507 -1.5772
C -1.6114 -1.5495 -1.5750
C -1.6177 -1.5502 -1.5790
C -1.6221 -1.5530 -1.5847
C -1.6202 -1.5463 -1.5738
C -1.6262 -1.5470 -1.5764
C -1.6138 -1.5426 -1.5665
C -1.6124 -1.5382 -1.5600
C -1.6160 -1.5368 -1.5608
C -1.6058 -1.5356 -1.5530
C -1.6065 -1.5323 -1.5474
C -1.6006 -1.5374 -1.5527
C -1.5960 -1.5354 -1.5470
C -1.6017 -1.5411 -1.5597
C -1.5971 -1.5422 -1.5586
C -1.6083 -1.5444 -1.5670
C -1.6043 -1.5603 -1.5816
C -1.6056 -1.5641 -1.5805
C -1.5994 -1.5585 -1.5832
C -1.5983 -1.5556 -1.5832
C -1.5954 -1.5610 -1.5831
C -1.5916 -1.5594 -1.5853
C -1.5953 -1.5596 -1.5818
C -1.5968 -1.5676 -1.5836
C -1.5985 -1.5696 -1.5834
C -1.5970 -1.5701 -1.5843
138
REAL frame=101
C -1.6090 -1.5743 -1.5825
C -1.6108 -1.5778 -1.5795
C -1.6092 -1.5701 -1.5828
C -1.6067 -1.5742 -1.5810
C -1.6071 -1.5788 -1.5842
C -1.6024 -1.5776 -1.5850
C -1.6077 -1.5835 -1.5844
C -1.6091 -1.5787 -1.5839
C -1.6132 -1.5816 -1.5811
C -1.6063 -1.5748 -1.5863
C -1.6030 -1.5726 -1.5867
C -1.6073 -1.5733 -1.5878
C -1.6089 -1.5702 -1.5858
C -1.6026 -1.5698 -1.5893
C -1.5999 -1.5624 -1.5876
C -1.5990 -1.5743 -1.5892
C -1.6056 -1.5676 -1.5934
C -1.6055 -1.5758 -1.5975
C -1.6032 -1.5833 -1.5967
C -1.6105 -1.5740 -1.6014
C -1.6112 -1.5799 -1.6042
C -1.6139 -1.5640 -1.6016
C -1.6203 -1.5611 -1.6043
C -1.6244 -1.5582 -1.5955
C -1.6143 -1.5561 -1.5976
C -1.6177 -1.5480 -1.5983
C -1.6093 -1.5579 -1.5939
C -1.6071 -1.5514 -1.5916
C -1.6098 -1.5791 -1.5903
C -1.6112 -1.5850 -1.5901
C -1.6088 -1.5765 -1.5931
C -1.6073 -1.5711 -1.5928
C -1.6097 -1.5818 -1.5974
C -1.6051 -1.5825 -1.6010
C -1.6133 -1.5879 -1.5974
C -1.6119 -1.5929 -1.5981
C -1.6135 -1.5926 -1.5986
C -1.6175 -1.5825 -1.5962
C -1.6159 -1.5778 -1.5963
C -1.6244 -1.5852 -1.5955
C -1.6113 -1.5794 -1.5950
C -1.6143 -1.5777 -1.5917
C -1.6104 -1.5792 -1.5957
C -1.6077 -1.5828 -1.5985
C -1.6093 -1.5866 -1.6002
C -1.6040 -1.5827 -1.5982
C -1.6077 -1.5825 -1.5981
C -1.6113 -1.5856 -1.6003
C -1.6034 -1.5839 -1.5989
C -1.6088 -1.5767 -1.5947
C -1.6117 -1.5765 -1.5941
C -1.6044 -1.5741 -1.5934
C -1.6134 -1.5759 -1.5934
C -1.6124 -1.5721 -1.5911
C -1.6194 -1.5763 -1.5913
C -1.6220 -1.5741 -1.5898
C -1.6230 -1.5808 -1.5924
C -1.6219 -1.5830 -1.5954
C -1.6303 -1.5824 -1.5930
C -1.6316 -1.5813 -1.5935
C -1.6306 -1.5905 -1.5955
C -1.6296 -1.5926 -1.5960
C -1.6356 -1.5917 -1.5953
C -1.6265 -1.5947 -1.5976
C -1.6209 -1.5948 -1.5983
C -1.6284 -1.6000 -1.6008
C -1.6263 -1.5910 -1.5976
C -1.6206 -1.5892 -1.5968
C -1.6315 -1.5888 -1.5969
C -1.6350 -1.5780 -1.5909
C -1.6382 -1.5744 -1.5901
C -1.6324 -1.5776 -1.5906
C -1.6287 -1.5796 -1.5929
C -1.6359 -1.5762 -1.5884
C -1.6391 -1.5721 -1.5878
C -1.6391 -1.5835 -1.5899
C -1.6426 -1.5816 -1.5884
C -1.6447 -1.5881 -1.5905
C -1.6431 -1.5824 -1.5901
C -1.6473 -1.5932 -1.5821
C -1.6459 -1.5932 -1.5980
C -1.6332 -1.5886 -1.5925
C -1.6294 -1.5907 -1.5939
C -1.6315 -1.5727 -1.5883
C -1.6321 -1.5754 -1.5892
C -1.6265 -1.5661 -1.5864
C -1.6265 -1.5629 -1.5847
C -1.6242 -1.5659 -1.5903
C -1.6253 -1.5692 -1.5919
C -1.6219 -1.5642 -1.5928
C -1.6213 -1.5642 -1.5882
C -1.6223 -1.5580 -1.5864
C -1.6190 -1.5692 -1.5889
C -1.6188 -1.5730 -1.5906
C -1.6175 -1.5691 -1.5880
C -1.6191 -1.5670 -1.5859
C -1.6187 -1.5742 -1.5884
C -1.6157 -1.5784 -1.5810
C -1.6254 -1.5635 -1.5902
C -1.6239 -1.5569 -1.5973
C -1.6251 -1.5641 -1.5834
C -1.6304 -1.5615 -1.5925
C -1.6188 -1.5851 -1.5972
C -1.6151 -1.5910 -1.5991
C -1.6132 -1.5670 -1.5873
C -1.6093 -1.5690 -1.5896
C -1.6135 -1.5639 -1.5828
C -1.6166 -1.5618 -1.5816
C -1.6086 -1.5590 -1.5817
C -1.6069 -1.5574 -1.5823
C -1.6102 -1.5537 -1.5780
C -1.6126 -1.5560 -1.5758
C -1.6080 -1.5523 -1.5779
C -1.6126 -1.5506 -1.5761
C -1.6187 -1.5513 -1.5802
C -1.6232 -1.5542 -1.5858
C -1.6213 -1.5473 -1.5750
C -1.6275 -1.5479 -1.5771
C -1.6149 -1.5437 -1.5678
C -1.6134 -1.5394 -1.5612
C -1.6171 -1.5379 -1.5616
C -1.6068 -1.5368 -1.5542
C -1.6072 -1.5332 -1.5488
C -1.6017 -1.5385 -1.5539
C -1.5970 -1.5365 -1.5483
C -1.6028 -1.5425 -1.5610
C -1.5983 -1.5436 -1.5600
C -1.6094 -1.5455 -1.5682
C -1.6053 -1.5614 -1.5828
C -1.6067 -1.5652 -1.5817
C -1.6005 -1.5596 -1.5843
C -1.5992 -1.5570 -1.5844
C -1.5964 -1.5621 -1.5842
C -1.5927 -1.5603 -1.5866
C -1.5965 -1.5606 -1.5829
C -1.5977 -1.5689 -1.5847
C -1.5995 -1.5705 -1.5845
C -1.5982 -1.5712 -1.5854
138
REAL frame=102
C -1.6091 -1.5743 -1.5826
C -1.6110 -1.5774 -1.5797
C -1.6097 -1.5697 -1.5830
C -1.6067 -1.5741 -1.5808
C -1.6070 -1.5789 -1.5842
C -1.6022 -1.5773 -1.5850
C -1.6075 -1.5836 -1.5849
C -1.6091 -1.5788 -1.5840
C -1.6132 -1.5815 -1.5811
C -1.6065 -1.5748 -1.5863
C -1.6029 -1.5721 -1.5869
C -1.6072 -1.5732 -1.5878
C -1.6089 -1.5700 -1.5860
C -1.6026 -1.5697 -1.5892
C -1.5997 -1.5625 -1.5877
C -1.5988 -1.5741 -1.5895
C -1.6056 -1.5677 -1.5934
C -1.6053 -1.5759 -1.5975
C -1.6029 -1.5834 -1.5967
C -1.6105 -1.5739 -1.6015
C -1.6114 -1.5798 -1.6043
C -1.6140 -1.5640 -1.6016
C -1.6204 -1.5611 -1.6043
C -1.6245 -1.5580 -1.5959
C -1.6143 -1.5560 -1.5976
C -1.6171 -1.5479 -1.5986
C -1.6093 -1.5580 -1.5939
C -1.6071 -1.5519 -1.5914
C -1.6098 -1.5790 -1.5901
C -1.6113 -1.5850 -1.5902
C -1.6086 -1.5765 -1.5930
C -1.6068 -1.5715 -1.5924
C -1.6098 -1.5819 -1.5974
C -1.6052 -1.5823 -1.6012
C -1.6132 -1.5881 -1.5975
C -1.6116 -1.5924 -1.5981
C -1.6134 -1.5928 -1.5985
C -1.6176 -1.5827 -1.5964
C -1.6160 -1.5777 -1.5963
C -1.6245 -1.5852 -1.5955
C -1.6115 -1.5795 -1.5950
C -1.6143 -1.5776 -1.5917
C -1.6105 -1.5795 -1.5958
C -1.6077 -1.5828 -1.5986
C -1.6093 -1.5863 -1.5995
C -1.6037 -1.5823 -1.5988
C -1.6077 -1.5826 -1.5980
C -1.6112 -1.5854 -1.6005
C -1.6032 -1.5841 -1.5986
C -1.6089 -1.5768 -1.5947
C -1.6122 -1.5765 -1.5936
C -1.6045 -1.5736 -1.5938
C -1.6133 -1.5758 -1.5933
C -1.6123 -1.5716 -1.5913
C -1.6195 -1.5764 -1.5914
C -1.6221 -1.5740 -1.5898
C -1.6230 -1.5808 -1.5925
C -1.6223 -1.5830 -1.5954
C -1.6303 -1.5824 -1.5930
C -1.6317 -1.5813 -1.5936
C -1.6307 -1.5903 -1.5954
C -1.6295 -1.5925 -1.5958
C -1.6357 -1.5918 -1.5948
C -1.6266 -1.5946 -1.5976
C -1.6210 -1.5946 -1.5979
C -1.6285 -1.6004 -1.6004
C -1.6263 -1.5912 -1.5977
C -1.6207 -1.5894 -1.5967
C -1.6315 -1.5887 -1.5968
C -1.6350 -1.5779 -1.5909
C -1.6383 -1.5745 -1.5900
C -1.6324 -1.5777 -1.5905
C -1.6289 -1.5796 -1.5930
C -1.6358 -1.5761 -1.5885
C -1.6391 -1.5720 -1.5877
C -1.6392 -1.5836 -1.5900
C -1.6429 -1.5815 -1.5885
C -1.6445 -1.5881 -1.5904
C -1.6430 -1.5824 -1.5899
C -1.6476 -1.5934 -1.5829
C -1.6455 -1.5930 -1.5979
C -1.6333 -1.5884 -1.5926
C -1.6292 -1.5905 -1.5939
C -1.6316 -1.5727 -1.5882
C -1.6321 -1.5754 -1.5891
C -1.6265 -1.5659 -1.5864
C -1.6265 -1.5625 -1.5846
C -1.6242 -1.5658 -1.5903
C -1.6245 -1.5693 -1.5917
C -1.6220 -1.5639 -1.5929
C -1.6215 -1.5642 -1.5882
C -1.6222 -1.5579 -1.5865
C -1.6190 -1.5693 -1.5890
C -1.6192 -1.5723 -1.5907
C -1.6175 -1.5691 -1.5882
C -1.6191 -1.5672 -1.5860
C -1.6186 -1.5741 -1.5885
C -1.6153 -1.5781 -1.5807
C -1.6255 -1.5634 -1.5901
C -1.6246 -1.5569 -1.5970
C -1.6252 -1.5637 -1.5833
C -1.6304 -1.5614 -1.5927
C -1.6189 -1.5851 -1.5972
C -1.6147 -1.5907 -1.5990
C -1.6134 -1.5670 -1.5871
C -1.6092 -1.5689 -1.5896
C -1.6135 -1.5639 -1.5828
C -1.6161 -1.5613 -1.5819
C -1.6087 -1.5590 -1.5816
C -1.6066 -1.5577 -1.5821
C -1.6101 -1.5537 -1.5780
C -1.6124 -1.5566 -1.5761
C -1.6080 -1.5523 -1.5774
C -1.6126 -1.5507 -1.5760
C -1.6186 -1.5513 -1.5801
C -1.6230 -1.5543 -1.5858
C -1.6213 -1.5473 -1.5750
C -1.6277 -1.5475 -1.5765
C -1.6150 -1.5437 -1.5678
C -1.6134 -1.5393 -1.5611
C -1.6171 -1.5378 -1.5611
C -1.6068 -1.5368 -1.5541
C -1.6067 -1.5329 -1.5488
C -1.6018 -1.5384 -1.5539
C -1.5969 -1.5364 -1.5483
C -1.6028 -1.5427 -1.5611
C -1.5986 -1.5440 -1.5605
C -1.6095 -1.5455 -1.5682
C -1.6052 -1.5614 -1.5828
C -1.6068 -1.5652 -1.5817
C -1.6004 -1.5595 -1.5842
C -1.5990 -1.5573 -1.5845
C -1.5964 -1.5621 -1.5842
C -1.5926 -1.5602 -1.5865
C -1.5965 -1.5605 -1.5829
C -1.5976 -1.5690 -1.5847
C -1.5994 -1.5703 -1.5845
C -1.5983 -1.5713 -1.5853
138
REAL frame=103
C -1.6092 -1.5744 -1.5825
C -1.6115 -1.5768 -1.5804
C -1.6103 -1.5692 -1.5834
C -1.6066 -1.5741 -1.5809
C -1.6069 -1.5789 -1.5841
C -1.6019 -1.5771 -1.5848
C -1.6074 -1.5835 -1.5854
C -1.6092 -1.5789 -1.5840
C -1.6132 -1.5815 -1.5812
C -1.6066 -1.5748 -1.5863
C -1.6027 -1.5716 -1.5871
C -1.6071 -1.5732 -1.5878
C -1.6089 -1.5698 -1.5860
C -1.6026 -1.5697 -1.5892
C -1.5998 -1.5626 -1.5876
C -1.5988 -1.5738 -1.5897
C -1.6055 -1.5679 -1.5935
C -1.6051 -1.5760 -1.5974
C -1.6027 -1.5834 -1.5968
C -1.6104 -1.5738 -1.6016
C -1.6117 -1.5796 -1.6043
C -1.6141 -1.5639 -1.6016
C -1.6204 -1.5612 -1.6044
C -1.6244 -1.5579 -1.5962
C -1.6142 -1.5559 -1.5976
C -1.6165 -1.5480 -1.5986
C -1.6093 -1.5581 -1.5938
C -1.6073 -1.5524 -1.5912
C -1.6098 -1.5788 -1.5900
C -1.6114 -1.5849 -1.5902
C -1.6085 -1.5766 -1.5929
C -1.6065 -1.5719 -1.5922
C -1.6098 -1.5819 -1.5974
C -1.6055 -1.5822 -1.6013
C -1.6130 -1.5883 -1.5977
C -1.6114 -1.5918 -1.5979
C -1.6133 -1.5929 -1.5984
C -1.6177 -1.5829 -1.5966
C -1.6160 -1.5777 -1.5964
C -1.6246 -1.5852 -1.5954
C -1.6116 -1.5795 -1.5950
C -1.6143 -1.5775 -1.5917
C -1.6106 -1.5797 -1.5960
C -1.6076 -1.5829 -1.5986
C -1.6093 -1.5860 -1.5990
C -1.6033 -1.5817 -1.5995
C -1.6076 -1.5826 -1.5980
C -1.6111 -1.5853 -1.6005
C -1.6030 -1.5842 -1.5985
C -1.6090 -1.5768 -1.5947
C -1.6125 -1.5764 -1.5932
C -1.6046 -1.5730 -1.5942
C -1.6132 -1.5757 -1.5933
C -1.6121 -1.5711 -1.5916
C -1.6196 -1.5766 -1.5915
C -1.6222 -1.5739 -1.5898
C -1.6231 -1.5808 -1.5925
C -1.6225 -1.5829 -1.5953
C -1.6302 -1.5825 -1.5929
C -1.6320 -1.5812 -1.5934
C -1.6308 -1.5902 -1.5953
C -1.6293 -1.5922 -1.5954
C -1.6358 -1.5918 -1.5945
C -1.6268 -1.5945 -1.5977
C -1.6211 -1.5946 -1.5974
C -1.6287 -1.6009 -1.5998
C -1.6264 -1.5913 -1.5977
C -1.6207 -1.5895 -1.5966
C -1.6316 -1.5885 -1.5967
C -1.6349 -1.5778 -1.5910
C -1.6384 -1.5745 -1.5900
C -1.6324 -1.5778 -1.5904
C -1.6290 -1.5798 -1.5928
C -1.6357 -1.5760 -1.5887
C -1.6393 -1.5720 -1.5872
C -1.6392 -1.5836 -1.5902
C -1.6430 -1.5816 -1.5887
C -1.6443 -1.5882 -1.5902
C -1.6429 -1.5825 -1.5898
C -1.6480 -1.5934 -1.5839
C -1.6453 -1.5928 -1.5977
C -1.6334 -1.5882 -1.5927
C -1.6290 -1.5903 -1.5939
C -1.6316 -1.5727 -1.5880
C -1.6320 -1.5755 -1.5890
C -1.6266 -1.5658 -1.5865
C -1.6262 -1.5622 -1.5845
C -1.6241 -1.5659 -1.5902
C -1.6239 -1.5694 -1.5916
C -1.6223 -1.5635 -1.5930
C -1.6217 -1.5642 -1.5882
C -1.6221 -1.5579 -1.5865
C -1.6191 -1.5693 -1.5892
C -1.6196 -1.5719 -1.5906
C -1.6175 -1.5691 -1.5883
C -1.6191 -1.5674 -1.5861
C -1.6185 -1.5740 -1.5887
C -1.6148 -1.5777 -1.5804
C -1.6255 -1.5633 -1.5901
C -1.6252 -1.5569 -1.5965
C -1.6254 -1.5633 -1.5830
C -1.6303 -1.5614 -1.5927
C -1.6189 -1.5851 -1.5972
C -1.6143 -1.5905 -1.5986
C -1.6134 -1.5669 -1.5870
C -1.6092 -1.5687 -1.5895
C -1.6135 -1.5638 -1.5828
C -1.6154 -1.5609 -1.5819
C -1.6088 -1.5591 -1.5814
C -1.6064 -1.5581 -1.5818
C -1.6101 -1.5538 -1.5780
C -1.6125 -1.5568 -1.5764
C -1.6078 -1.5518 -1.5771
C -1.6126 -1.5506 -1.5758
C -1.6186 -1.5511 -1.5801
C -1.6228 -1.5543 -1.5858
C -1.6213 -1.5472 -1.5752
C -1.6277 -1.5472 -1.5758
C -1.6151 -1.5437 -1.5679
C -1.6133 -1.5392 -1.5610
C -1.6173 -1.5377 -1.5605
C -1.6069 -1.5367 -1.5541
C -1.6060 -1.5327 -1.5488
C -1.6019 -1.5384 -1.5540
C -1.5968 -1.5363 -1.5484
C -1.6029 -1.5430 -1.5612
C -1.5989 -1.5444 -1.5612
C -1.6096 -1.5456 -1.5682
C -1.6052 -1.5614 -1.5829
C -1.6068 -1.5652 -1.5818
C -1.6003 -1.5595 -1.5842
C -1.5988 -1.5575 -1.5847
C -1.5964 -1.5621 -1.5842
C -1.5924 -1.5600 -1.5861
C -1.5965 -1.5606 -1.5829
C -1.5975 -1.5691 -1.5848
C -1.5994 -1.5702 -1.5845
C -1.5985 -1.5714 -1.5853
138
REAL frame=104
C -1.6093 -1.5744 -1.5825
C -1.6120 -1.5762 -1.5814
C -1.6109 -1.5688 -1.5838
C -1.6064 -1.5742 -1.5811
C -1.6068 -1.5789 -1.5841
C -1.6017 -1.5771 -1.5845
C -1.6073 -1.5834 -1.5859
C -1.6092 -1.5789 -1.5841
C -1.6133 -1.5815 -1.5812
C -1.6067 -1.5748 -1.5864
C -1.6026 -1.5712 -1.5874
C -1.6070 -1.5731 -1.5877
C -1.6089 -1.5698 -1.5859
C -1.6026 -1.5696 -1.5892
C -1.6001 -1.5627 -1.5872
C -1.5990 -1.5736 -1.5899
C -1.6054 -1.5680 -1.5936
C -1.6050 -1.5761 -1.5974
C -1.6024 -1.5835 -1.5970
C -1.6104 -1.5737 -1.6017
C -1.6118 -1.5795 -1.6043
C -1.6143 -1.5639 -1.6016
C -1.6204 -1.5613 -1.6044
C -1.6244 -1.5578 -1.5964
C -1.6142 -1.5558 -1.5976
C -1.6160 -1.5481 -1.5983
C -1.6093 -1.5582 -1.5937
C -1.6077 -1.5529 -1.5909
C -1.6098 -1.5786 -1.5900
C -1.6114 -1.5849 -1.5903
C -1.6084 -1.5767 -1.5928
C -1.6063 -1.5721 -1.5922
C -1.6098 -1.5819 -1.5974
C -1.6060 -1.5822 -1.6013
C -1.6128 -1.5885 -1.5978
C -1.6112 -1.5914 -1.5977
C -1.6132 -1.5930 -1.5984
C -1.6179 -1.5831 -1.5967
C -1.6160 -1.5776 -1.5965
C -1.6247 -1.5852 -1.5953
C -1.6117 -1.5795 -1.5950
C -1.6142 -1.5774 -1.5917
C -1.6106 -1.5799 -1.5961
C -1.6076 -1.5829 -1.5985
C -1.6094 -1.5857 -1.5988
C -1.6030 -1.5812 -1.6000
C -1.6076 -1.5826 -1.5980
C -1.6110 -1.5852 -1.6003
C -1.6027 -1.5840 -1.5985
C -1.6092 -1.5768 -1.5948
C -1.6128 -1.5764 -1.5930
C -1.6048 -1.5725 -1.5946
C -1.6130 -1.5756 -1.5932
C -1.6120 -1.5707 -1.5917
C -1.6197 -1.5768 -1.5915
C -1.6222 -1.5738 -1.5897
C -1.6231 -1.5807 -1.5926
C -1.6225 -1.5829 -1.5952
C -1.6301 -1.5824 -1.5929
C -1.6324 -1.5810 -1.5932
C -1.6309 -1.5901 -1.5952
C -1.6290 -1.5920 -1.5950
C -1.6360 -1.5918 -1.5943
C -1.6269 -1.5943 -1.5978
C -1.6213 -1.5945 -1.5970
C -1.6289 -1.6012 -1.5992
C -1.6266 -1.5913 -1.5975
C -1.6207 -1.5897 -1.5966
C -1.6317 -1.5885 -1.5966
C -1.6348 -1.5777 -1.5910
C -1.6385 -1.5746 -1.5900
C -1.6324 -1.5779 -1.5904
C -1.6290 -1.5801 -1.5923
C -1.6356 -1.5760 -1.5888
C -1.6397 -1.5721 -1.5866
C -1.6392 -1.5835 -1.5902
C -1.6429 -1.5817 -1.5887
C -1.6442 -1.5883 -1.5901
C -1.6429 -1.5826 -1.5895
C -1.6484 -1.5931 -1.5850
C -1.6452 -1.5926 -1.5976
C -1.6335 -1.5881 -1.5928
C -1.6288 -1.5901 -1.5940
C -1.6317 -1.5728 -1.5878
C -1.6320 -1.5755 -1.5890
C -1.6267 -1.5656 -1.5866
C -1.6257 -1.5619 -1.5844
C -1.6239 -1.5659 -1.5902
C -1.6236 -1.5694 -1.5915
C -1.6225 -1.5630 -1.5931
C -1.6219 -1.5641 -1.5883
C -1.6220 -1.5579 -1.5865
C -1.6191 -1.5693 -1.5893
C -1.6199 -1.5719 -1.5905
C -1.6176 -1.5692 -1.5884
C -1.6191 -1.5673 -1.5862
C -1.6185 -1.5739 -1.5888
C -1.6143 -1.5772 -1.5802
C -1.6254 -1.5632 -1.5901
C -1.6257 -1.5568 -1.5959
C -1.6259 -1.5628 -1.5828
C -1.6302 -1.5616 -1.5926
C -1.6189 -1.5852 -1.5972
C -1.6139 -1.5904 -1.5982
C -1.6134 -1.5670 -1.5869
C -1.6091 -1.5685 -1.5894
C -1.6136 -1.5637 -1.5829
C -1.6149 -1.5608 -1.5818
C -1.6088 -1.5591 -1.5813
C -1.6063 -1.5583 -1.5816
C -1.6100 -1.5540 -1.5780
C -1.6128 -1.5569 -1.5765
C -1.6073 -1.5510 -1.5770
C -1.6127 -1.5505 -1.5756
C -1.6186 -1.5510 -1.5800
C -1.6225 -1.5543 -1.5858
C -1.6213 -1.5472 -1.5753
C -1.6277 -1.5469 -1.5754
C -1.6151 -1.5437 -1.5680
C -1.6133 -1.5391 -1.5610
C -1.6174 -1.5376 -1.5601
C -1.6069 -1.5365 -1.5541
C -1.6052 -1.5327 -1.5487
C -1.6020 -1.5384 -1.5540
C -1.5967 -1.5362 -1.5484
C -1.6029 -1.5432 -1.5613
C -1.5992 -1.5447 -1.5618
C -1.6097 -1.5456 -1.5682
C -1.6053 -1.5615 -1.5829
C -1.6068 -1.5651 -1.5818
C -1.6002 -1.5596 -1.5842
C -1.5987 -1.5576 -1.5849
C -1.5964 -1.5622 -1.5842
C -1.5921 -1.5599 -1.5855
C -1.5963 -1.5608 -1.5830
C -1.5974 -1.5691 -1.5849
C -1.5993 -1.5700 -1.5845
C -1.5987 -1.5715 -1.5852
138
REAL frame=105
C -1.6094 -1.5745 -1.5824
C -1.6124 -1.5757 -1.5825
C -1.6114 -1.5685 -1.5843
C -1.6062 -1.5742 -1.5814
C -1.6067 -1.5789 -1.5842
C -1.6015 -1.5772 -1.5842
C -1.6072 -1.5833 -1.5863
C -1.6094 -1.5789 -1.5841
C -1.6133 -1.5814 -1.5813
C -1.6068 -1.5747 -1.5864
C -1.6026 -1.5711 -1.5875
C -1.6070 -1.5731 -1.5876
C -1.6089 -1.5699 -1.5856
C -1.6025 -1.5694 -1.5892
C -1.6005 -1.5629 -1.5867
C -1.5993 -1.5736 -1.5900
C -1.6053 -1.5682 -1.5936
C -1.6049 -1.5761 -1.5974
C -1.6020 -1.5835 -1.5971
C -1.6103 -1.5737 -1.6017
C -1.6119 -1.5793 -1.6043
C -1.6145 -1.5638 -1.6016
C -1.6204 -1.5614 -1.6045
C -1.6242 -1.5578 -1.5964
C -1.6141 -1.5557 -1.5976
C -1.6157 -1.5483 -1.5979
C -1.6092 -1.5583 -1.5936
C -1.6083 -1.5531 -1.5906
C -1.6097 -1.5785 -1.5900
C -1.6115 -1.5847 -1.5903
C -1.6084 -1.5768 -1.5929
C -1.6062 -1.5721 -1.5923
C -1.6096 -1.5820 -1.5972
C -1.6065 -1.5824 -1.6012
C -1.6127 -1.5886 -1.5979
C -1.6112 -1.5913 -1.5976
C -1.6131 -1.5931 -1.5986
C -1.6180 -1.5833 -1.5969
C -1.6160 -1.5776 -1.5966
C -1.6248 -1.5852 -1.5953
C -1.6119 -1.5794 -1.5950
C -1.6142 -1.5773 -1.5917
C -1.6107 -1.5800 -1.5961
C -1.6076 -1.5830 -1.5985
C -1.6095 -1.5855 -1.5988
C -1.6028 -1.5810 -1.6003
C -1.6075 -1.5826 -1.5981
C -1.6110 -1.5853 -1.6001
C -1.6024 -1.5837 -1.5987
C -1.6093 -1.5768 -1.5948
C -1.6130 -1.5764 -1.5931
C -1.6050 -1.5722 -1.5950
C -1.6129 -1.5756 -1.5931
C -1.6119 -1.5705 -1.5918
C -1.6198 -1.5770 -1.5916
C -1.6223 -1.5737 -1.5897
C -1.6232 -1.5807 -1.5927
C -1.6223 -1.5829 -1.5951
C -1.6300 -1.5823 -1.5928
C -1.6329 -1.5808 -1.5930
C -1.6309 -1.5900 -1.5950
C -1.6287 -1.5918 -1.5946
C -1.6361 -1.5918 -1.5943
C -1.6270 -1.5942 -1.5979
C -1.6215 -1.5944 -1.5968
C -1.6290 -1.6013 -1.5988
C -1.6269 -1.5912 -1.5974
C -1.6206 -1.5898 -1.5965
C -1.6317 -1.5885 -1.5966
C -1.6346 -1.5776 -1.5910
C -1.6386 -1.5747 -1.5900
C -1.6324 -1.5780 -1.5905
C -1.6289 -1.5805 -1.5916
C -1.6357 -1.5760 -1.5888
C -1.6401 -1.5723 -1.5860
C -1.6392 -1.5834 -1.5903
C -1.6425 -1.5818 -1.5887
C -1.6441 -1.5884 -1.5900
C -1.6428 -1.5828 -1.5892
C -1.6486 -1.5928 -1.5859
C -1.6451 -1.5924 -1.5975
C -1.6336 -1.5880 -1.5929
C -1.6286 -1.5900 -1.5940
C -1.6317 -1.5727 -1.5877
C -1.6320 -1.5756 -1.5890
C -1.6268 -1.5655 -1.5866
C -1.6253 -1.5617 -1.5844
C -1.6238 -1.5659 -1.5901
C -1.6235 -1.5693 -1.5915
C -1.6228 -1.5626 -1.5931
C -1.6220 -1.5641 -1.5883
C -1.6219 -1.5579 -1.5866
C -1.6192 -1.5693 -1.5895
C -1.6203 -1.5721 -1.5903
C -1.6176 -1.5692 -1.5885
C -1.6193 -1.5671 -1.5865
C -1.6185 -1.5738 -1.5889
C -1.6140 -1.5769 -1.5801
C -1.6254 -1.5632 -1.5901
C -1.6260 -1.5568 -1.5955
C -1.6264 -1.5625 -1.5826
C -1.6299 -1.5618 -1.5924
C -1.6189 -1.5852 -1.5972
C -1.6136 -1.5904 -1.5979
C -1.6133 -1.5670 -1.5869
C -1.6091 -1.5682 -1.5892
C -1.6137 -1.5635 -1.5829
C -1.6145 -1.5606 -1.5816
C -1.6088 -1.5592 -1.5812
C -1.6062 -1.5584 -1.5814
C -1.6100 -1.5541 -1.5779
C -1.6132 -1.5566 -1.5766
C -1.6069 -1.5500 -1.5773
C -1.6127 -1.5504 -1.5755
C -1.6187 -1.5508 -1.5799
C -1.6221 -1.5542 -1.5857
C -1.6213 -1.5472 -1.5754
C -1.6276 -1.5469 -1.5755
C -1.6152 -1.5437 -1.5681
C -1.6133 -1.5391 -1.5609
C -1.6175 -1.5375 -1.5598
C -1.6070 -1.5364 -1.5540
C -1.6045 -1.5328 -1.5485
C -1.6021 -1.5385 -1.5541
C -1.5967 -1.5361 -1.5484
C -1.6030 -1.5434 -1.5613
C -1.5994 -1.5449 -1.5623
C -1.6097 -1.5457 -1.5682
C -1.6054 -1.5616 -1.5828
C -1.6069 -1.5650 -1.5819
C -1.6001 -1.5597 -1.5842
C -1.5988 -1.5576 -1.5850
C -1.5963 -1.5622 -1.5842
C -1.5918 -1.5598 -1.5847
C -1.5962 -1.5611 -1.5831
C -1.5973 -1.5690 -1.5851
C -1.5992 -1.5699 -1.5845
C -1.5988 -1.5716 -1.5851
138
REAL frame=106
C -1.6095 -1.5745 -1.5824
C -1.6127 -1.5755 -1.5835
C -1.6117 -1.5684 -1.5845
C -1.6061 -1.5741 -1.5814
C -1.6066 -1.5789 -1.5842
C -1.6014 -1.5775 -1.5839
C -1.6071 -1.5833 -1.5865
C -1.6095 -1.5789 -1.5841
C -1.6133 -1.5814 -1.5814
C -1.6068 -1.5747 -1.5865
C -1.6027 -1.5712 -1.5875
C -1.6071 -1.5731 -1.5875
C -1.6089 -1.5701 -1.5853
C -1.6025 -1.5694 -1.5892
C -1.6008 -1.5630 -1.5863
C -1.5998 -1.5736 -1.5900
C -1.6052 -1.5683 -1.5937
C -1.6048 -1.5761 -1.5975
C -1.6017 -1.5835 -1.5973
C -1.6102 -1.5737 -1.6016
C -1.6118 -1.5791 -1.6042
C -1.6147 -1.5637 -1.6015
C -1.6204 -1.5614 -1.6046
C -1.6240 -1.5579 -1.5962
C -1.6139 -1.5557 -1.5976
C -1.6155 -1.5485 -1.5975
C -1.6092 -1.5583 -1.5936
C -1.6089 -1.5532 -1.5904
C -1.6097 -1.5785 -1.5900
C -1.6116 -1.5846 -1.5903
C -1.6084 -1.5769 -1.5929
C -1.6062 -1.5719 -1.5926
C -1.6094 -1.5820 -1.5971
C -1.6068 -1.5826 -1.6009
C -1.6127 -1.5887 -1.5980
C -1.6113 -1.5915 -1.5976
C -1.6131 -1.5933 -1.5989
C -1.6181 -1.5835 -1.5970
C -1.6161 -1.5775 -1.5967
C -1.6248 -1.5852 -1.5952
C -1.6120 -1.5794 -1.5950
C -1.6141 -1.5772 -1.5918
C -1.6107 -1.5800 -1.5961
C -1.6075 -1.5830 -1.5985
C -1.6095 -1.5856 -1.5992
C -1.6028 -1.5810 -1.6002
C -1.6074 -1.5826 -1.5982
C -1.6111 -1.5855 -1.5999
C -1.6022 -1.5832 -1.5990
C -1.6095 -1.5767 -1.5948
C -1.6132 -1.5765 -1.5934
C -1.6053 -1.5720 -1.5953
C -1.6127 -1.5757 -1.5931
C -1.6118 -1.5705 -1.5917
C -1.6199 -1.5771 -1.5917
C -1.6223 -1.5738 -1.5897
C -1.6232 -1.5807 -1.5928
C -1.6220 -1.5829 -1.5951
C -1.6300 -1.5822 -1.5928
C -1.6332 -1.5806 -1.5927
C -1.6310 -1.5899 -1.5949
C -1.6286 -1.5916 -1.5943
C -1.6362 -1.5916 -1.5943
C -1.6272 -1.5942 -1.5979
C -1.6216 -1.5943 -1.5968
C -1.6292 -1.6012 -1.5987
C -1.6271 -1.5910 -1.5972
C -1.6206 -1.5900 -1.5965
C -1.6318 -1.5885 -1.5965
C -1.6344 -1.5777 -1.5910
C -1.6387 -1.5747 -1.5900
C -1.6325 -1.5780 -1.5906
C -1.6289 -1.5808 -1.5910
C -1.6358 -1.5760 -1.5888
C -1.6404 -1.5725 -1.5856
C -1.6390 -1.5832 -1.5903
C -1.6420 -1.5820 -1.5887
C -1.6440 -1.5884 -1.5900
C -1.6427 -1.5830 -1.5888
C -1.6488 -1.5925 -1.5865
C -1.6449 -1.5920 -1.5975
C -1.6337 -1.5880 -1.5931
C -1.6285 -1.5899 -1.5941
C -1.6317 -1.5727 -1.5876
C -1.6321 -1.5756 -1.5889
C -1.6269 -1.5654 -1.5867
C -1.6250 -1.5615 -1.5843
C -1.6237 -1.5659 -1.5901
C -1.6236 -1.5693 -1.5915
C -1.6228 -1.5624 -1.5929
C -1.6220 -1.5640 -1.5883
C -1.6218 -1.5580 -1.5866
C -1.6193 -1.5693 -1.5897
C -1.6205 -1.5726 -1.5901
C -1.6176 -1.5693 -1.5885
C -1.6195 -1.5669 -1.5867
C -1.6186 -1.5737 -1.5889
C -1.6139 -1.5767 -1.5801
C -1.6253 -1.5631 -1.5901
C -1.6261 -1.5568 -1.5953
C -1.6267 -1.5623 -1.5825
C -1.6296 -1.5622 -1.5921
C -1.6189 -1.5852 -1.5972
C -1.6136 -1.5904 -1.5978
C -1.6132 -1.5671 -1.5869
C -1.6091 -1.5680 -1.5891
C -1.6137 -1.5633 -1.5829
C -1.6146 -1.5606 -1.5814
C -1.6088 -1.5593 -1.5811
C -1.6062 -1.5583 -1.5813
C -1.6099 -1.5543 -1.5778
C -1.6134 -1.5563 -1.5764
C -1.6065 -1.5491 -1.5778
C -1.6127 -1.5503 -1.5754
C -1.6187 -1.5507 -1.5798
C -1.6218 -1.5540 -1.5857
C -1.6213 -1.5472 -1.5755
C -1.6275 -1.5469 -1.5761
C -1.6152 -1.5437 -1.5682
C -1.6133 -1.5390 -1.5608
C -1.6176 -1.5375 -1.5598
C -1.6070 -1.5363 -1.5539
C -1.6040 -1.5329 -1.5484
C -1.6022 -1.5386 -1.5541
C -1.5967 -1.5361 -1.5484
C -1.6031 -1.5435 -1.5613
C -1.5995 -1.5451 -1.5624
C -1.6098 -1.5458 -1.5682
C -1.6054 -1.5617 -1.5827
C -1.6069 -1.5649 -1.5820
C -1.6000 -1.5598 -1.5842
C -1.5989 -1.5574 -1.5852
C -1.5962 -1.5623 -1.5842
C -1.5916 -1.5599 -1.5839
C -1.5960 -1.5613 -1.5832
C -1.5973 -1.5690 -1.5852
C -1.5992 -1.5698 -1.5845
C -1.5989 -1.5716 -1.5851
138
REAL frame=107
C -1.6096 -1.5745 -1.5825
C -1.6130 -1.5757 -1.5841
C -1.6117 -1.5685 -1.5845
C -1.6061 -1.5740 -1.5812
C -1.6065 -1.5789 -1.5843
C -1.6013 -1.5777 -1.5837
C -1.6070 -1.5833 -1.5865
C -1.6096 -1.5788 -1.5841
C -1.6134 -1.5814 -1.5814
C -1.6067 -1.5747 -1.5866
C -1.6029 -1.5716 -1.5874
C -1.6071 -1.5731 -1.5873
C -1.6089 -1.5704 -1.5848
C -1.6025 -1.5693 -1.5892
C -1.6011 -1.5631 -1.5861
C -1.6003 -1.5737 -1.5898
C -1.6050 -1.5683 -1.5938
C -1.6047 -1.5760 -1.5977
C -1.6014 -1.5835 -1.5975
C -1.6101 -1.5737 -1.6016
C -1.6116 -1.5791 -1.6042
C -1.6150 -1.5636 -1.6015
C -1.6204 -1.5615 -1.6048
C -1.6237 -1.5580 -1.5960
C -1.6138 -1.5558 -1.5976
C -1.6156 -1.5486 -1.5971
C -1.6091 -1.5584 -1.5936
C -1.6095 -1.5530 -1.5903
C -1.6096 -1.5786 -1.5901
C -1.6116 -1.5843 -1.5903
C -1.6084 -1.5770 -1.5930
C -1.6064 -1.5717 -1.5929
C -1.6092 -1.5821 -1.5970
C -1.6069 -1.5829 -1.6006
C -1.6127 -1.5888 -1.5980
C -1.6113 -1.5919 -1.5978
C -1.6131 -1.5934 -1.5995
C -1.6182 -1.5836 -1.5970
C -1.6161 -1.5774 -1.5969
C -1.6249 -1.5852 -1.5952
C -1.6121 -1.5794 -1.5950
C -1.6141 -1.5771 -1.5919
C -1.6107 -1.5799 -1.5960
C -1.6075 -1.5831 -1.5985
C -1.6095 -1.5860 -1.5998
C -1.6029 -1.5814 -1.5999
C -1.6073 -1.5825 -1.5983
C -1.6111 -1.5858 -1.5997
C -1.6021 -1.5826 -1.5993
C -1.6097 -1.5767 -1.5948
C -1.6135 -1.5766 -1.5938
C -1.6055 -1.5720 -1.5955
C -1.6126 -1.5759 -1.5930
C -1.6117 -1.5707 -1.5916
C -1.6200 -1.5771 -1.5919
C -1.6223 -1.5738 -1.5896
C -1.6233 -1.5808 -1.5928
C -1.6217 -1.5829 -1.5949
C -1.6301 -1.5821 -1.5927
C -1.6333 -1.5804 -1.5926
C -1.6311 -1.5898 -1.5948
C -1.6286 -1.5915 -1.5942
C -1.6363 -1.5914 -1.5944
C -1.6273 -1.5941 -1.5978
C -1.6216 -1.5942 -1.5971
C -1.6294 -1.6009 -1.5990
C -1.6272 -1.5909 -1.5972
C -1.6206 -1.5901 -1.5965
C -1.6319 -1.5886 -1.5964
C -1.6342 -1.5778 -1.5909
C -1.6389 -1.5747 -1.5900
C -1.6325 -1.5780 -1.5906
C -1.6288 -1.5809 -1.5907
C -1.6359 -1.5761 -1.5886
C -1.6407 -1.5725 -1.5855
C -1.6388 -1.5830 -1.5903
C -1.6414 -1.5820 -1.5886
C -1.6439 -1.5884 -1.5900
C -1.6426 -1.5831 -1.5883
C -1.6487 -1.5925 -1.5867
C -1.6446 -1.5916 -1.5975
C -1.6338 -1.5880 -1.5932
C -1.6285 -1.5899 -1.5942
C -1.6317 -1.5725 -1.5876
C -1.6321 -1.5757 -1.5889
C -1.6269 -1.5654 -1.5868
C -1.6250 -1.5614 -1.5843
C -1.6237 -1.5657 -1.5901
C -1.6239 -1.5691 -1.5916
C -1.6227 -1.5623 -1.5925
C -1.6221 -1.5638 -1.5882
C -1.6218 -1.5580 -1.5867
C -1.6193 -1.5693 -1.5898
C -1.6206 -1.5730 -1.5901
C -1.6176 -1.5693 -1.5886
C -1.6197 -1.5666 -1.5870
C -1.6187 -1.5736 -1.5888
C -1.6141 -1.5767 -1.5803
C -1.6253 -1.5630 -1.5901
C -1.6261 -1.5567 -1.5954
C -1.6268 -1.5623 -1.5825
C -1.6292 -1.5626 -1.5918
C -1.6189 -1.5852 -1.5972
C -1.6137 -1.5906 -1.5978
C -1.6132 -1.5671 -1.5869
C -1.6091 -1.5678 -1.5890
C -1.6137 -1.5631 -1.5828
C -1.6150 -1.5605 -1.5813
C -1.6087 -1.5595 -1.5811
C -1.6063 -1.5582 -1.5812
C -1.6099 -1.5543 -1.5776
C -1.6135 -1.5560 -1.5761
C -1.6063 -1.5486 -1.5785
C -1.6128 -1.5502 -1.5754
C -1.6188 -1.5507 -1.5798
C -1.6215 -1.5537 -1.5857
C -1.6213 -1.5471 -1.5755
C -1.6273 -1.5472 -1.5770
C -1.6152 -1.5437 -1.5681
C -1.6133 -1.5389 -1.5608
C -1.6175 -1.5374 -1.5601
C -1.6070 -1.5363 -1.5538
C -1.6036 -1.5329 -1.5483
C -1.6022 -1.5387 -1.5542
C -1.5968 -1.5362 -1.5485
C -1.6032 -1.5436 -1.5614
C -1.5996 -1.5451 -1.5622
C -1.6098 -1.5458 -1.5681
C -1.6054 -1.5618 -1.5827
C -1.6069 -1.5648 -1.5821
C -1.5999 -1.5600 -1.5841
C -1.5991 -1.5573 -1.5852
C -1.5961 -1.5623 -1.5842
C -1.5914 -1.5601 -1.5834
C -1.5960 -1.5615 -1.5833
C -1.5974 -1.5690 -1.5853
C -1.5991 -1.5698 -1.5845
C -1.5990 -1.5716 -1.5850
138
REAL frame=108
C -1.6097 -1.5745 -1.5826
C -1.6133 -1.5762 -1.5841
C -1.6116 -1.5686 -1.5843
C -1.6065 -1.5737 -1.5808
C -1.6064 -1.5789 -1.5843
C -1.6013 -1.5779 -1.5836
C -1.6068 -1.5834 -1.5863
C -1.6096 -1.5787 -1.5842
C -1.6134 -1.5814 -1.5815
C -1.6067 -1.5747 -1.5867
C -1.6031 -1.5721 -1.5873
C -1.6072 -1.5731 -1.5872
C -1.6089 -1.5707 -1.5844
C -1.6025 -1.5693 -1.5891
C -1.6011 -1.5631 -1.5860
C -1.6006 -1.5739 -1.5895
C -1.6048 -1.5682 -1.5938
C -1.6047 -1.5759 -1.5979
C -1.6011 -1.5835 -1.5977
C -1.6101 -1.5737 -1.6015
C -1.6113 -1.5791 -1.6042
C -1.6152 -1.5635 -1.6014
C -1.6204 -1.5616 -1.6049
C -1.6234 -1.5581 -1.5958
C -1.6136 -1.5559 -1.5975
C -1.6158 -1.5486 -1.5970
C -1.6091 -1.5584 -1.5936
C -1.6100 -1.5526 -1.5903
C -1.6096 -1.5788 -1.5902
C -1.6116 -1.5841 -1.5902
C -1.6084 -1.5770 -1.5931
C -1.6065 -1.5714 -1.5933
C -1.6090 -1.5821 -1.5968
C -1.6067 -1.5832 -1.6003
C -1.6127 -1.5888 -1.5980
C -1.6113 -1.5925 -1.5981
C -1.6132 -1.5936 -1.6000
C -1.6183 -1.5837 -1.5970
C -1.6161 -1.5774 -1.5971
C -1.6249 -1.5852 -1.5952
C -1.6121 -1.5793 -1.5949
C -1.6141 -1.5770 -1.5920
C -1.6107 -1.5798 -1.5958
C -1.6075 -1.5831 -1.5986
C -1.6094 -1.5864 -1.6006
C -1.6031 -1.5820 -1.5993
C -1.6073 -1.5825 -1.5984
C -1.6112 -1.5862 -1.5995
C -1.6021 -1.5820 -1.5997
C -1.6099 -1.5765 -1.5949
C -1.6138 -1.5768 -1.5942
C -1.6058 -1.5721 -1.5956
C -1.6126 -1.5760 -1.5930
C -1.6116 -1.5711 -1.5914
C -1.6201 -1.5770 -1.5920
C -1.6224 -1.5740 -1.5895
C -1.6234 -1.5808 -1.5929
C -1.6214 -1.5829 -1.5947
C -1.6302 -1.5819 -1.5926
C -1.6332 -1.5802 -1.5925
C -1.6311 -1.5897 -1.5946
C -1.6288 -1.5914 -1.5942
C -1.6363 -1.5912 -1.5945
C -1.6275 -1.5941 -1.5976
C -1.6216 -1.5941 -1.5976
C -1.6295 -1.6004 -1.5994
C -1.6273 -1.5908 -1.5972
C -1.6206 -1.5902 -1.5964
C -1.6320 -1.5886 -1.5963
C -1.6339 -1.5780 -1.5909
C -1.6390 -1.5748 -1.5900
C -1.6325 -1.5781 -1.5906
C -1.6286 -1.5808 -1.5910
C -1.6361 -1.5762 -1.5884
C -1.6409 -1.5725 -1.5856
C -1.6386 -1.5829 -1.5902
C -1.6409 -1.5820 -1.5886
C -1.6440 -1.5882 -1.5902
C -1.6426 -1.5833 -1.5879
C -1.6485 -1.5927 -1.5865
C -1.6443 -1.5911 -1.5975
C -1.6339 -1.5880 -1.5934
C -1.6285 -1.5901 -1.5943
C -1.6317 -1.5723 -1.5876
C -1.6322 -1.5758 -1.5889
C -1.6268 -1.5655 -1.5869
C -1.6253 -1.5613 -1.5842
C -1.6237 -1.5656 -1.5901
C -1.6242 -1.5689 -1.5916
C -1.6225 -1.5624 -1.5921
C -1.6220 -1.5637 -1.5882
C -1.6218 -1.5581 -1.5868
C -1.6194 -1.5694 -1.5899
C -1.6205 -1.5732 -1.5903
C -1.6177 -1.5693 -1.5886
C -1.6198 -1.5663 -1.5872
C -1.6189 -1.5735 -1.5887
C -1.6146 -1.5769 -1.5806
C -1.6252 -1.5629 -1.5902
C -1.6259 -1.5566 -1.5959
C -1.6266 -1.5624 -1.5825
C -1.6288 -1.5629 -1.5916
C -1.6188 -1.5853 -1.5971
C -1.6139 -1.5909 -1.5980
C -1.6132 -1.5670 -1.5869
C -1.6091 -1.5676 -1.5889
C -1.6137 -1.5629 -1.5827
C -1.6157 -1.5604 -1.5813
C -1.6087 -1.5596 -1.5812
C -1.6064 -1.5580 -1.5812
C -1.6099 -1.5542 -1.5775
C -1.6133 -1.5559 -1.5756
C -1.6063 -1.5484 -1.5791
C -1.6128 -1.5502 -1.5755
C -1.6188 -1.5507 -1.5797
C -1.6213 -1.5535 -1.5856
C -1.6213 -1.5470 -1.5755
C -1.6269 -1.5475 -1.5779
C -1.6152 -1.5437 -1.5681
C -1.6134 -1.5388 -1.5609
C -1.6174 -1.5373 -1.5605
C -1.6069 -1.5363 -1.5537
C -1.6035 -1.5330 -1.5483
C -1.6022 -1.5388 -1.5543
C -1.5968 -1.5363 -1.5486
C -1.6033 -1.5437 -1.5614
C -1.5996 -1.5451 -1.5617
C -1.6099 -1.5458 -1.5681
C -1.6053 -1.5619 -1.5827
C -1.6070 -1.5647 -1.5822
C -1.5998 -1.5601 -1.5841
C -1.5993 -1.5572 -1.5853
C -1.5960 -1.5624 -1.5842
C -1.5913 -1.5603 -1.5831
C -1.5962 -1.5616 -1.5833
C -1.5975 -1.5691 -1.5854
C -1.5991 -1.5698 -1.5845
C -1.5990 -1.5715 -1.5850
138
REAL frame=109
C -1.6098 -1.5744 -1.5828
C -1.6134 -1.5769 -1.5838
C -1.6114 -1.5688 -1.5839
C -1.6070 -1.5735 -1.5803
C -1.6063 -1.5789 -1.5844
C -1.6012 -1.5780 -1.5837
C -1.6067 -1.5835 -1.5860
C -1.6096 -1.5786 -1.5842
C -1.6135 -1.5814 -1.5815
C -1.6066 -1.5747 -1.5867
C -1.6034 -1.5725 -1.5873
C -1.6073 -1.5731 -1.5872
C -1.6090 -1.5709 -1.5841
C -1.6026 -1.5694 -1.5891
C -1.6010 -1.5631 -1.5862
C -1.6008 -1.5741 -1.5892
C -1.6047 -1.5682 -1.5939
C -1.6046 -1.5758 -1.5981
C -1.6009 -1.5834 -1.5980
C -1.6100 -1.5737 -1.6013
C -1.6109 -1.5793 -1.6042
C -1.6154 -1.5635 -1.6013
C -1.6205 -1.5616 -1.6051
C -1.6229 -1.5580 -1.5957
C -1.6135 -1.5561 -1.5974
C -1.6163 -1.5486 -1.5969
C -1.6091 -1.5584 -1.5937
C -1.6104 -1.5521 -1.5904
C -1.6095 -1.5789 -1.5902
C -1.6117 -1.5839 -1.5902
C -1.6084 -1.5770 -1.5932
C -1.6065 -1.5713 -1.5936
C -1.6089 -1.5821 -1.5967
C -1.6062 -1.5834 -1.6001
C -1.6128 -1.5888 -1.5980
C -1.6113 -1.5932 -1.5985
C -1.6132 -1.5936 -1.6005
C -1.6184 -1.5838 -1.5969
C -1.6162 -1.5774 -1.5973
C -1.6249 -1.5853 -1.5952
C -1.6121 -1.5793 -1.5948
C -1.6141 -1.5768 -1.5922
C -1.6107 -1.5796 -1.5956
C -1.6074 -1.5831 -1.5987
C -1.6091 -1.5868 -1.6013
C -1.6034 -1.5825 -1.5986
C -1.6072 -1.5825 -1.5985
C -1.6112 -1.5866 -1.5995
C -1.6022 -1.5816 -1.6000
C -1.6101 -1.5764 -1.5949
C -1.6141 -1.5768 -1.5945
C -1.6060 -1.5722 -1.5956
C -1.6126 -1.5762 -1.5930
C -1.6116 -1.5717 -1.5911
C -1.6201 -1.5770 -1.5921
C -1.6224 -1.5741 -1.5895
C -1.6234 -1.5809 -1.5929
C -1.6213 -1.5828 -1.5943
C -1.6303 -1.5818 -1.5926
C -1.6329 -1.5801 -1.5924
C -1.6311 -1.5897 -1.5946
C -1.6291 -1.5914 -1.5942
C -1.6362 -1.5909 -1.5946
C -1.6276 -1.5941 -1.5974
C -1.6218 -1.5940 -1.5981
C -1.6296 -1.5998 -1.5999
C -1.6272 -1.5908 -1.5972
C -1.6208 -1.5902 -1.5962
C -1.6321 -1.5886 -1.5962
C -1.6337 -1.5781 -1.5909
C -1.6391 -1.5748 -1.5899
C -1.6325 -1.5781 -1.5906
C -1.6285 -1.5806 -1.5916
C -1.6362 -1.5763 -1.5883
C -1.6409 -1.5724 -1.5859
C -1.6385 -1.5828 -1.5901
C -1.6404 -1.5819 -1.5885
C -1.6440 -1.5881 -1.5903
C -1.6427 -1.5834 -1.5875
C -1.6482 -1.5931 -1.5860
C -1.6439 -1.5905 -1.5975
C -1.6340 -1.5880 -1.5935
C -1.6286 -1.5903 -1.5944
C -1.6317 -1.5722 -1.5877
C -1.6323 -1.5758 -1.5890
C -1.6267 -1.5655 -1.5869
C -1.6257 -1.5613 -1.5841
C -1.6238 -1.5653 -1.5901
C -1.6245 -1.5687 -1.5917
C -1.6221 -1.5627 -1.5917
C -1.6220 -1.5637 -1.5882
C -1.6218 -1.5582 -1.5868
C -1.6194 -1.5694 -1.5900
C -1.6202 -1.5733 -1.5907
C -1.6177 -1.5692 -1.5886
C -1.6198 -1.5662 -1.5873
C -1.6190 -1.5734 -1.5886
C -1.6152 -1.5772 -1.5808
C -1.6252 -1.5628 -1.5902
C -1.6257 -1.5566 -1.5966
C -1.6261 -1.5625 -1.5827
C -1.6285 -1.5632 -1.5914
C -1.6188 -1.5853 -1.5971
C -1.6143 -1.5912 -1.5982
C -1.6132 -1.5668 -1.5868
C -1.6091 -1.5675 -1.5889
C -1.6136 -1.5627 -1.5826
C -1.6165 -1.5605 -1.5813
C -1.6087 -1.5597 -1.5812
C -1.6065 -1.5580 -1.5813
C -1.6100 -1.5541 -1.5773
C -1.6127 -1.5559 -1.5750
C -1.6064 -1.5486 -1.5796
C -1.6129 -1.5503 -1.5756
C -1.6188 -1.5507 -1.5796
C -1.6212 -1.5532 -1.5856
C -1.6213 -1.5469 -1.5754
C -1.6265 -1.5477 -1.5786
C -1.6152 -1.5436 -1.5679
C -1.6134 -1.5388 -1.5609
C -1.6172 -1.5373 -1.5611
C -1.6068 -1.5364 -1.5537
C -1.6037 -1.5329 -1.5482
C -1.6022 -1.5388 -1.5544
C -1.5969 -1.5367 -1.5488
C -1.6035 -1.5436 -1.5614
C -1.5995 -1.5450 -1.5612
C -1.6100 -1.5458 -1.5680
C -1.6052 -1.5620 -1.5827
C -1.6071 -1.5646 -1.5822
C -1.5998 -1.5602 -1.5840
C -1.5994 -1.5573 -1.5853
C -1.5958 -1.5625 -1.5842
C -1.5911 -1.5607 -1.5831
C -1.5964 -1.5616 -1.5834
C -1.5976 -1.5691 -1.5854
C -1.5991 -1.5698 -1.5846
C -1.5990 -1.5713 -1.5850
138
REAL frame=110
C -1.6099 -1.5744 -1.5830
C -1.6134 -1.5776 -1.5832
C -1.6113 -1.5691 -1.5834
C -1.6076 -1.5733 -1.5800
C -1.6062 -1.5789 -1.5845
C -1.6012 -1.5780 -1.5839
C -1.6066 -1.5837 -1.5857
C -1.6095 -1.5785 -1.5843
C -1.6137 -1.5814 -1.5816
C -1.6066 -1.5748 -1.5866
C -1.6034 -1.5728 -1.5874
C -1.6073 -1.5731 -1.5871
C -1.6092 -1.5710 -1.5839
C -1.6028 -1.5694 -1.5890
C -1.6007 -1.5630 -1.5865
C -1.6008 -1.5742 -1.5889
C -1.6045 -1.5681 -1.5940
C -1.6046 -1.5758 -1.5982
C -1.6009 -1.5833 -1.5983
C -1.6099 -1.5737 -1.6013
C -1.6104 -1.5795 -1.6042
C -1.6155 -1.5636 -1.6011
C -1.6205 -1.5617 -1.6052
C -1.6224 -1.5579 -1.5957
C -1.6133 -1.5562 -1.5973
C -1.6168 -1.5485 -1.5969
C -1.6091 -1.5584 -1.5937
C -1.6107 -1.5517 -1.5905
C -1.6093 -1.5790 -1.5902
C -1.6117 -1.5837 -1.5901
C -1.6084 -1.5770 -1.5933
C -1.6065 -1.5713 -1.5937
C -1.6089 -1.5822 -1.5967
C -1.6054 -1.5834 -1.6000
C -1.6129 -1.5889 -1.5980
C -1.6112 -1.5937 -1.5989
C -1.6132 -1.5937 -1.6007
C -1.6186 -1.5838 -1.5968
C -1.6162 -1.5774 -1.5975
C -1.6250 -1.5854 -1.5952
C -1.6120 -1.5792 -1.5947
C -1.6140 -1.5767 -1.5923
C -1.6107 -1.5794 -1.5954
C -1.6074 -1.5831 -1.5988
C -1.6089 -1.5871 -1.6019
C -1.6036 -1.5830 -1.5980
C -1.6072 -1.5825 -1.5986
C -1.6112 -1.5868 -1.5997
C -1.6024 -1.5814 -1.6003
C -1.6103 -1.5763 -1.5949
C -1.6143 -1.5768 -1.5946
C -1.6061 -1.5724 -1.5954
C -1.6127 -1.5763 -1.5931
C -1.6117 -1.5723 -1.5909
C -1.6201 -1.5769 -1.5922
C -1.6224 -1.5743 -1.5894
C -1.6235 -1.5809 -1.5930
C -1.6212 -1.5827 -1.5940
C -1.6304 -1.5817 -1.5926
C -1.6325 -1.5800 -1.5924
C -1.6311 -1.5896 -1.5945
C -1.6296 -1.5914 -1.5943
C -1.6361 -1.5906 -1.5946
C -1.6277 -1.5941 -1.5972
C -1.6221 -1.5940 -1.5984
C -1.6297 -1.5992 -1.6002
C -1.6271 -1.5909 -1.5973
C -1.6210 -1.5902 -1.5961
C -1.6322 -1.5886 -1.5962
C -1.6335 -1.5782 -1.5908
C -1.6392 -1.5749 -1.5899
C -1.6324 -1.5782 -1.5905
C -1.6284 -1.5803 -1.5924
C -1.6363 -1.5763 -1.5882
C -1.6409 -1.5723 -1.5863
C -1.6383 -1.5829 -1.5900
C -1.6402 -1.5816 -1.5883
C -1.6440 -1.5879 -1.5905
C -1.6429 -1.5834 -1.5873
C -1.6477 -1.5934 -1.5855
C -1.6438 -1.5899 -1.5976
C -1.6340 -1.5880 -1.5937
C -1.6288 -1.5905 -1.5945
C -1.6317 -1.5721 -1.5877
C -1.6324 -1.5758 -1.5891
C -1.6266 -1.5656 -1.5869
C -1.6260 -1.5614 -1.5842
C -1.6239 -1.5651 -1.5901
C -1.6248 -1.5685 -1.5917
C -1.6218 -1.5630 -1.5915
C -1.6220 -1.5637 -1.5882
C -1.6218 -1.5583 -1.5868
C -1.6194 -1.5694 -1.5900
C -1.6198 -1.5732 -1.5912
C -1.6177 -1.5691 -1.5886
C -1.6198 -1.5661 -1.5873
C -1.6191 -1.5733 -1.5885
C -1.6158 -1.5774 -1.5810
C -1.6252 -1.5627 -1.5902
C -1.6255 -1.5567 -1.5973
C -1.6254 -1.5626 -1.5830
C -1.6284 -1.5632 -1.5913
C -1.6187 -1.5853 -1.5971
C -1.6146 -1.5915 -1.5983
C -1.6133 -1.5665 -1.5867
C -1.6091 -1.5674 -1.5889
C -1.6135 -1.5625 -1.5825
C -1.6171 -1.5608 -1.5812
C -1.6088 -1.5597 -1.5812
C -1.6066 -1.5580 -1.5814
C -1.6100 -1.5539 -1.5772
C -1.6119 -1.5560 -1.5745
C -1.6065 -1.5491 -1.5798
C -1.6130 -1.5503 -1.5757
C -1.6188 -1.5507 -1.5796
C -1.6212 -1.5532 -1.5855
C -1.6213 -1.5469 -1.5754
C -1.6261 -1.5476 -1.5788
C -1.6152 -1.5436 -1.5678
C -1.6135 -1.5388 -1.5610
C -1.6169 -1.5373 -1.5615
C -1.6067 -1.5365 -1.5537
C -1.6040 -1.5330 -1.5482
C -1.6023 -1.5389 -1.5544
C -1.5969 -1.5370 -1.5490
C -1.6036 -1.5436 -1.5613
C -1.5995 -1.5449 -1.5607
C -1.6101 -1.5457 -1.5679
C -1.6050 -1.5620 -1.5827
C -1.6072 -1.5646 -1.5823
C -1.5998 -1.5603 -1.5839
C -1.5994 -1.5575 -1.5854
C -1.5957 -1.5627 -1.5842
C -1.5911 -1.5612 -1.5833
C -1.5967 -1.5615 -1.5833
C -1.5977 -1.5691 -1.5853
C -1.5991 -1.5698 -1.5846
C -1.5990 -1.5712 -1.5851
138
REAL frame=111
C -1.6111 -1.5754 -1.5842
C -1.6144 -1.5791 -1.5838
C -1.6123 -1.5703 -1.5840
C -1.6092 -1.5744 -1.5811
C -1.6072 -1.5800 -1.5857
C -1.6022 -1.5789 -1.5853
C -1.6075 -1.5849 -1.5865
C -1.6104 -1.5796 -1.5855
C -1.6148 -1.5824 -1.5827
C -1.6076 -1.5760 -1.5877
C -1.6044 -1.5739 -1.5888
C -1.6084 -1.5742 -1.5882
C -1.6106 -1.5721 -1.5851
C -1.6040 -1.5706 -1.5899
C -1.6015 -1.5640 -1.5879
C -1.6017 -1.5754 -1.5898
C -1.6054 -1.5691 -1.5951
C -1.6056 -1.5769 -1.5993
C -1.6019 -1.5842 -1.5997
C -1.6110 -1.5747 -1.6023
C -1.6109 -1.5807 -1.6053
C -1.6167 -1.5647 -1.6020
C -1.6216 -1.5628 -1.6063
C -1.6230 -1.5587 -1.5969
C -1.6143 -1.5574 -1.5984
C -1.6184 -1.5496 -1.5980
C -1.6102 -1.5594 -1.5949
C -1.6118 -1.5526 -1.5916
C -1.6103 -1.5800 -1.5913
C -1.6128 -1.5847 -1.5912
C -1.6094 -1.5781 -1.5944
C -1.6074 -1.5725 -1.5948
C -1.6100 -1.5833 -1.5978
C -1.6056 -1.5843 -1.6011
C -1.6140 -1.5900 -1.5992
C -1.6121 -1.5951 -1.6002
C -1.6143 -1.5948 -1.6017
C -1.6197 -1.5849 -1.5979
C -1.6172 -1.5785 -1.5987
C -1.6260 -1.5866 -1.5964
C -1.6130 -1.5803 -1.5956
C -1.6151 -1.5777 -1.5935
C -1.6117 -1.5805 -1.5963
C -1.6083 -1.5842 -1.5999
C -1.6098 -1.5883 -1.6032
C -1.6047 -1.5843 -1.5986
C -1.6082 -1.5836 -1.5998
C -1.6122 -1.5880 -1.6010
C -1.6036 -1.5826 -1.6015
C -1.6115 -1.5773 -1.5960
C -1.6156 -1.5778 -1.5955
C -1.6072 -1.5736 -1.5962
C -1.6139 -1.5774 -1.5942
C -1.6128 -1.5740 -1.5919
C -1.6211 -1.5782 -1.5933
C -1.6234 -1.5755 -1.5905
C -1.6246 -1.5820 -1.5942
C -1.6223 -1.5837 -1.5947
C -1.6314 -1.5828 -1.5937
C -1.6332 -1.5811 -1.5935
C -1.6322 -1.5906 -1.5955
C -1.6310 -1.5925 -1.5954
C -1.6370 -1.5915 -1.5956
C -1.6288 -1.5952 -1.5981
C -1.6235 -1.5952 -1.5995
C -1.6308 -1.5998 -1.6013
C -1.6281 -1.5922 -1.5983
C -1.6222 -1.5913 -1.5970
C -1.6333 -1.5897 -1.5972
C -1.6344 -1.5793 -1.5919
C -1.6404 -1.5762 -1.5910
C -1.6334 -1.5794 -1.5915
C -1.6293 -1.5812 -1.5940
C -1.6373 -1.5774 -1.5893
C -1.6419 -1.5734 -1.5879
C -1.6393 -1.5842 -1.5910
C -1.6413 -1.5826 -1.5894
C -1.6449 -1.5888 -1.5917
C -1.6442 -1.5846 -1.5883
C -1.6482 -1.5948 -1.5863
C -1.6449 -1.5904 -1.5988
C -1.6351 -1.5892 -1.5949
C -1.6300 -1.5918 -1.5958
C -1.6327 -1.5731 -1.5888
C -1.6335 -1.5769 -1.5904
C -1.6276 -1.5668 -1.5880
C -1.6272 -1.5627 -1.5855
C -1.6250 -1.5660 -1.5912
C -1.6261 -1.5693 -1.5928
C -1.6227 -1.5643 -1.5927
C -1.6230 -1.5649 -1.5895
C -1.6228 -1.5595 -1.5880
C -1.6205 -1.5705 -1.5911
C -1.6202 -1.5742 -1.5928
C -1.6188 -1.5701 -1.5898
C -1.6207 -1.5672 -1.5884
C -1.6202 -1.5744 -1.5896
C -1.6174 -1.5786 -1.5821
C -1.6263 -1.5638 -1.5913
C -1.6264 -1.5579 -1.5991
C -1.6258 -1.5635 -1.5845
C -1.6295 -1.5642 -1.5924
C -1.6197 -1.5863 -1.5982
C -1.6159 -1.5930 -1.5994
C -1.6144 -1.5673 -1.5877
C -1.6101 -1.5685 -1.5901
C -1.6145 -1.5634 -1.5836
C -1.6184 -1.5623 -1.5821
C -1.6098 -1.5607 -1.5822
C -1.6077 -1.5593 -1.5826
C -1.6111 -1.5548 -1.5784
C -1.6121 -1.5573 -1.5752
C -1.6078 -1.5507 -1.5808
C -1.6141 -1.5516 -1.5769
C -1.6199 -1.5519 -1.5808
C -1.6224 -1.5544 -1.5867
C -1.6223 -1.5481 -1.5766
C -1.6266 -1.5485 -1.5797
C -1.6162 -1.5446 -1.5688
C -1.6147 -1.5400 -1.5622
C -1.6177 -1.5385 -1.5630
C -1.6077 -1.5378 -1.5549
C -1.6055 -1.5342 -1.5494
C -1.6033 -1.5400 -1.5557
C -1.5980 -1.5386 -1.5504
C -1.6048 -1.5446 -1.5624
C -1.6005 -1.5458 -1.5615
C -1.6112 -1.5468 -1.5691
C -1.6059 -1.5632 -1.5838
C -1.6083 -1.5656 -1.5835
C -1.6009 -1.5615 -1.5849
C -1.6004 -1.5589 -1.5866
C -1.5967 -1.5640 -1.5853
C -1.5922 -1.5627 -1.5849
C -1.5980 -1.5624 -1.5844
C -1.5988 -1.5701 -1.5863
C -1.6001 -1.5709 -1.5858
C -1.6000 -1.5720 -1.5862
138
REAL frame=112
C -1.6112 -1.5753 -1.5843
C -1.6143 -1.5792 -1.5835
C -1.6124 -1.5703 -1.5837
C -1.6095 -1.5747 -1.5814
C -1.6072 -1.5799 -1.5858
C -1.6021 -1.5787 -1.5856
C -1.6075 -1.5849 -1.5863
C -1.6102 -1.5795 -1.5855
C -1.6149 -1.5824 -1.5828
C -1.6075 -1.5762 -1.5876
C -1.6043 -1.5739 -1.5892
C -1.6084 -1.5743 -1.5881
C -1.6108 -1.5719 -1.5853
C -1.6041 -1.5706 -1.5899
C -1.6014 -1.5640 -1.5882
C -1.6014 -1.5754 -1.5896
C -1.6053 -1.5691 -1.5952
C -1.6055 -1.5769 -1.5993
C -1.6019 -1.5840 -1.6000
C -1.6110 -1.5746 -1.6023
C -1.6104 -1.5807 -1.6054
C -1.6167 -1.5648 -1.6018
C -1.6217 -1.5628 -1.6064
C -1.6224 -1.5583 -1.5972
C -1.6143 -1.5575 -1.5984
C -1.6188 -1.5497 -1.5980
C -1.6102 -1.5594 -1.5949
C -1.6118 -1.5526 -1.5917
C -1.6102 -1.5798 -1.5912
C -1.6128 -1.5847 -1.5912
C -1.6094 -1.5782 -1.5944
C -1.6072 -1.5727 -1.5946
C -1.6101 -1.5832 -1.5978
C -1.6049 -1.5839 -1.6013
C -1.6141 -1.5900 -1.5992
C -1.6121 -1.5952 -1.6004
C -1.6143 -1.5949 -1.6013
C -1.6198 -1.5850 -1.5979
C -1.6172 -1.5785 -1.5988
C -1.6260 -1.5867 -1.5964
C -1.6128 -1.5802 -1.5956
C -1.6151 -1.5775 -1.5935
C -1.6118 -1.5804 -1.5962
C -1.6082 -1.5842 -1.5999
C -1.6098 -1.5882 -1.6032
C -1.6046 -1.5843 -1.5984
C -1.6082 -1.5836 -1.5999
C -1.6122 -1.5880 -1.6013
C -1.6038 -1.5828 -1.6016
C -1.6116 -1.5772 -1.5960
C -1.6158 -1.5776 -1.5953
C -1.6072 -1.5735 -1.5960
C -1.6141 -1.5774 -1.5942
C -1.6130 -1.5743 -1.5920
C -1.6211 -1.5783 -1.5933
C -1.6234 -1.5756 -1.5905
C -1.6247 -1.5820 -1.5942
C -1.6224 -1.5835 -1.5944
C -1.6314 -1.5828 -1.5938
C -1.6330 -1.5811 -1.5935
C -1.6323 -1.5906 -1.5955
C -1.6314 -1.5923 -1.5954
C -1.6369 -1.5912 -1.5955
C -1.6289 -1.5951 -1.5981
C -1.6241 -1.5955 -1.5992
C -1.6309 -1.5993 -1.6011
C -1.6281 -1.5923 -1.5982
C -1.6223 -1.5912 -1.5969
C -1.6334 -1.5897 -1.5971
C -1.6344 -1.5792 -1.5918
C -1.6404 -1.5764 -1.5909
C -1.6334 -1.5795 -1.5913
C -1.6292 -1.5811 -1.5942
C -1.6372 -1.5774 -1.5893
C -1.6418 -1.5733 -1.5881
C -1.6394 -1.5843 -1.5909
C -1.6415 -1.5824 -1.5893
C -1.6448 -1.5886 -1.5918
C -1.6446 -1.5845 -1.5883
C -1.6478 -1.5949 -1.5862
C -1.6452 -1.5899 -1.5988
C -1.6351 -1.5892 -1.5950
C -1.6301 -1.5918 -1.5960
C -1.6327 -1.5732 -1.5888
C -1.6336 -1.5768 -1.5905
C -1.6276 -1.5668 -1.5880
C -1.6271 -1.5630 -1.5858
C -1.6250 -1.5659 -1.5912
C -1.6262 -1.5691 -1.5929
C -1.6227 -1.5643 -1.5930
C -1.6230 -1.5650 -1.5896
C -1.6228 -1.5596 -1.5880
C -1.6205 -1.5704 -1.5911
C -1.6196 -1.5741 -1.5932
C -1.6189 -1.5700 -1.5898
C -1.6206 -1.5671 -1.5883
C -1.6202 -1.5745 -1.5895
C -1.6176 -1.5787 -1.5819
C -1.6262 -1.5638 -1.5913
C -1.6264 -1.5580 -1.5994
C -1.6252 -1.5631 -1.5849
C -1.6298 -1.5638 -1.5923
C -1.6198 -1.5863 -1.5983
C -1.6160 -1.5934 -1.5991
C -1.6144 -1.5670 -1.5876
C -1.6100 -1.5684 -1.5902
C -1.6144 -1.5633 -1.5836
C -1.6183 -1.5629 -1.5815
C -1.6098 -1.5605 -1.5821
C -1.6078 -1.5595 -1.5827
C -1.6112 -1.5547 -1.5785
C -1.6112 -1.5574 -1.5751
C -1.6080 -1.5510 -1.5805
C -1.6142 -1.5516 -1.5769
C -1.6199 -1.5519 -1.5808
C -1.6226 -1.5546 -1.5867
C -1.6223 -1.5481 -1.5766
C -1.6262 -1.5480 -1.5790
C -1.6163 -1.5445 -1.5688
C -1.6147 -1.5401 -1.5622
C -1.6175 -1.5386 -1.5631
C -1.6076 -1.5379 -1.5550
C -1.6060 -1.5344 -1.5493
C -1.6033 -1.5400 -1.5556
C -1.5981 -1.5388 -1.5504
C -1.6050 -1.5445 -1.5623
C -1.6006 -1.5457 -1.5615
C -1.6113 -1.5467 -1.5692
C -1.6058 -1.5632 -1.5838
C -1.6084 -1.5656 -1.5836
C -1.6009 -1.5616 -1.5848
C -1.6003 -1.5592 -1.5866
C -1.5966 -1.5642 -1.5853
C -1.5923 -1.5632 -1.5855
C -1.5982 -1.5623 -1.5844
C -1.5988 -1.5700 -1.5862
C -1.6001 -1.5710 -1.5859
C -1.6000 -1.5719 -1.5862
138
REAL frame=113
C -1.6113 -1.5753 -1.5843
C -1.6144 -1.5791 -1.5834
C -1.6126 -1.5703 -1.5835
C -1.6096 -1.5751 -1.5821
C -1.6072 -1.5799 -1.5859
C -1.6021 -1.5784 -1.5859
C -1.6075 -1.5849 -1.5864
C -1.6102 -1.5795 -1.5855
C -1.6149 -1.5825 -1.5829
C -1.6075 -1.5763 -1.5876
C -1.6041 -1.5739 -1.5896
C -1.6084 -1.5744 -1.5881
C -1.6111 -1.5717 -1.5856
C -1.6042 -1.5706 -1.5898
C -1.6013 -1.5641 -1.5883
C -1.6012 -1.5754 -1.5896
C -1.6053 -1.5692 -1.5953
C -1.6053 -1.5769 -1.5992
C -1.6019 -1.5839 -1.6001
C -1.6109 -1.5745 -1.6023
C -1.6101 -1.5805 -1.6055
C -1.6167 -1.5649 -1.6018
C -1.6217 -1.5629 -1.6063
C -1.6217 -1.5579 -1.5977
C -1.6143 -1.5575 -1.5985
C -1.6191 -1.5497 -1.5979
C -1.6101 -1.5593 -1.5949
C -1.6116 -1.5529 -1.5916
C -1.6101 -1.5796 -1.5912
C -1.6129 -1.5848 -1.5912
C -1.6093 -1.5781 -1.5944
C -1.6070 -1.5729 -1.5945
C -1.6102 -1.5832 -1.5979
C -1.6045 -1.5833 -1.6015
C -1.6141 -1.5901 -1.5993
C -1.6122 -1.5950 -1.6004
C -1.6143 -1.5949 -1.6008
C -1.6199 -1.5850 -1.5980
C -1.6172 -1.5785 -1.5988
C -1.6261 -1.5868 -1.5964
C -1.6127 -1.5802 -1.5955
C -1.6150 -1.5774 -1.5935
C -1.6119 -1.5805 -1.5962
C -1.6080 -1.5842 -1.5999
C -1.6098 -1.5879 -1.6029
C -1.6042 -1.5841 -1.5986
C -1.6082 -1.5836 -1.6000
C -1.6122 -1.5878 -1.6016
C -1.6038 -1.5832 -1.6016
C -1.6117 -1.5772 -1.5961
C -1.6159 -1.5773 -1.5949
C -1.6072 -1.5732 -1.5958
C -1.6144 -1.5773 -1.5943
C -1.6131 -1.5743 -1.5922
C -1.6211 -1.5785 -1.5932
C -1.6234 -1.5757 -1.5905
C -1.6248 -1.5819 -1.5943
C -1.6226 -1.5833 -1.5942
C -1.6313 -1.5829 -1.5938
C -1.6330 -1.5812 -1.5936
C -1.6323 -1.5905 -1.5955
C -1.6317 -1.5921 -1.5952
C -1.6368 -1.5910 -1.5954
C -1.6289 -1.5949 -1.5981
C -1.6248 -1.5958 -1.5987
C -1.6311 -1.5989 -1.6005
C -1.6282 -1.5923 -1.5980
C -1.6224 -1.5912 -1.5968
C -1.6334 -1.5897 -1.5971
C -1.6344 -1.5791 -1.5917
C -1.6405 -1.5766 -1.5909
C -1.6333 -1.5796 -1.5913
C -1.6291 -1.5813 -1.5938
C -1.6371 -1.5773 -1.5894
C -1.6417 -1.5732 -1.5883
C -1.6396 -1.5844 -1.5908
C -1.6420 -1.5825 -1.5892
C -1.6447 -1.5884 -1.5918
C -1.6450 -1.5844 -1.5883
C -1.6477 -1.5948 -1.5864
C -1.6456 -1.5896 -1.5988
C -1.6351 -1.5892 -1.5951
C -1.6303 -1.5916 -1.5962
C -1.6327 -1.5732 -1.5887
C -1.6337 -1.5768 -1.5907
C -1.6277 -1.5667 -1.5879
C -1.6269 -1.5634 -1.5861
C -1.6250 -1.5658 -1.5911
C -1.6262 -1.5689 -1.5929
C -1.6228 -1.5640 -1.5934
C -1.6230 -1.5651 -1.5898
C -1.6228 -1.5597 -1.5879
C -1.6204 -1.5703 -1.5911
C -1.6191 -1.5742 -1.5935
C -1.6190 -1.5698 -1.5897
C -1.6205 -1.5671 -1.5881
C -1.6203 -1.5746 -1.5895
C -1.6175 -1.5786 -1.5816
C -1.6262 -1.5637 -1.5913
C -1.6264 -1.5581 -1.5995
C -1.6248 -1.5625 -1.5852
C -1.6301 -1.5633 -1.5921
C -1.6198 -1.5862 -1.5983
C -1.6161 -1.5937 -1.5986
C -1.6144 -1.5668 -1.5876
C -1.6100 -1.5684 -1.5902
C -1.6145 -1.5632 -1.5837
C -1.6180 -1.5635 -1.5808
C -1.6098 -1.5603 -1.5820
C -1.6077 -1.5596 -1.5827
C -1.6112 -1.5546 -1.5786
C -1.6107 -1.5575 -1.5751
C -1.6080 -1.5510 -1.5802
C -1.6143 -1.5516 -1.5768
C -1.6199 -1.5520 -1.5809
C -1.6229 -1.5549 -1.5868
C -1.6222 -1.5481 -1.5765
C -1.6257 -1.5476 -1.5781
C -1.6163 -1.5445 -1.5688
C -1.6147 -1.5401 -1.5621
C -1.6174 -1.5386 -1.5629
C -1.6075 -1.5380 -1.5552
C -1.6065 -1.5347 -1.5493
C -1.6033 -1.5400 -1.5556
C -1.5982 -1.5389 -1.5504
C -1.6052 -1.5444 -1.5621
C -1.6008 -1.5456 -1.5616
C -1.6114 -1.5467 -1.5692
C -1.6059 -1.5632 -1.5837
C -1.6084 -1.5656 -1.5837
C -1.6008 -1.5618 -1.5847
C -1.6002 -1.5594 -1.5865
C -1.5966 -1.5644 -1.5853
C -1.5925 -1.5635 -1.5860
C -1.5982 -1.5624 -1.5843
C -1.5987 -1.5697 -1.5861
C -1.6002 -1.5712 -1.5860
C -1.6000 -1.5717 -1.5863
138
REAL frame=114
C -1.6114 -1.5753 -1.5843
C -1.6146 -1.5786 -1.5837
C -1.6128 -1.5702 -1.5835
C -1.6095 -1.5756 -1.5830
C -1.6073 -1.5798 -1.5861
C -1.6020 -1.5781 -1.5861
C -1.6075 -1.5849 -1.5868
C -1.6102 -1.5796 -1.5855
C -1.6150 -1.5825 -1.5830
C -1.6074 -1.5764 -1.5876
C -1.6039 -1.5739 -1.5898
C -1.6084 -1.5745 -1.5880
C -1.6111 -1.5715 -1.5859
C -1.6042 -1.5706 -1.5899
C -1.6015 -1.5641 -1.5881
C -1.6011 -1.5754 -1.5896
C -1.6053 -1.5693 -1.5952
C -1.6052 -1.5769 -1.5992
C -1.6019 -1.5839 -1.5999
C -1.6109 -1.5745 -1.6024
C -1.6099 -1.5802 -1.6056
C -1.6166 -1.5649 -1.6018
C -1.6218 -1.5630 -1.6063
C -1.6209 -1.5576 -1.5983
C -1.6143 -1.5574 -1.5986
C -1.6192 -1.5497 -1.5978
C -1.6101 -1.5593 -1.5949
C -1.6113 -1.5532 -1.5916
C -1.6101 -1.5795 -1.5912
C -1.6129 -1.5848 -1.5912
C -1.6092 -1.5781 -1.5943
C -1.6069 -1.5730 -1.5943
C -1.6103 -1.5831 -1.5980
C -1.6044 -1.5828 -1.6018
C -1.6142 -1.5902 -1.5994
C -1.6124 -1.5946 -1.6002
C -1.6143 -1.5948 -1.6001
C -1.6200 -1.5851 -1.5982
C -1.6171 -1.5785 -1.5989
C -1.6262 -1.5868 -1.5965
C -1.6125 -1.5802 -1.5955
C -1.6150 -1.5772 -1.5935
C -1.6121 -1.5806 -1.5963
C -1.6079 -1.5841 -1.5999
C -1.6098 -1.5875 -1.6025
C -1.6038 -1.5836 -1.5991
C -1.6082 -1.5837 -1.6002
C -1.6121 -1.5876 -1.6019
C -1.6037 -1.5837 -1.6015
C -1.6117 -1.5772 -1.5961
C -1.6158 -1.5771 -1.5946
C -1.6072 -1.5728 -1.5956
C -1.6146 -1.5772 -1.5943
C -1.6133 -1.5739 -1.5925
C -1.6211 -1.5787 -1.5930
C -1.6233 -1.5757 -1.5905
C -1.6248 -1.5818 -1.5943
C -1.6227 -1.5832 -1.5941
C -1.6312 -1.5830 -1.5939
C -1.6332 -1.5813 -1.5936
C -1.6324 -1.5904 -1.5955
C -1.6319 -1.5919 -1.5950
C -1.6367 -1.5908 -1.5954
C -1.6289 -1.5948 -1.5982
C -1.6254 -1.5960 -1.5981
C -1.6313 -1.5986 -1.5999
C -1.6283 -1.5923 -1.5976
C -1.6224 -1.5912 -1.5967
C -1.6335 -1.5898 -1.5971
C -1.6345 -1.5791 -1.5916
C -1.6405 -1.5767 -1.5908
C -1.6332 -1.5796 -1.5912
C -1.6291 -1.5818 -1.5930
C -1.6369 -1.5773 -1.5896
C -1.6415 -1.5732 -1.5882
C -1.6397 -1.5845 -1.5907
C -1.6426 -1.5827 -1.5891
C -1.6445 -1.5882 -1.5917
C -1.6453 -1.5843 -1.5884
C -1.6478 -1.5944 -1.5870
C -1.6459 -1.5895 -1.5987
C -1.6351 -1.5893 -1.5951
C -1.6304 -1.5913 -1.5963
C -1.6326 -1.5733 -1.5887
C -1.6338 -1.5767 -1.5909
C -1.6278 -1.5666 -1.5878
C -1.6267 -1.5638 -1.5865
C -1.6250 -1.5657 -1.5911
C -1.6262 -1.5687 -1.5930
C -1.6231 -1.5635 -1.5939
C -1.6230 -1.5652 -1.5899
C -1.6228 -1.5599 -1.5879
C -1.6203 -1.5702 -1.5911
C -1.6186 -1.5745 -1.5936
C -1.6192 -1.5697 -1.5896
C -1.6206 -1.5670 -1.5880
C -1.6203 -1.5747 -1.5895
C -1.6172 -1.5785 -1.5812
C -1.6262 -1.5637 -1.5913
C -1.6265 -1.5580 -1.5993
C -1.6247 -1.5618 -1.5854
C -1.6304 -1.5628 -1.5918
C -1.6198 -1.5861 -1.5983
C -1.6160 -1.5939 -1.5981
C -1.6143 -1.5666 -1.5877
C -1.6100 -1.5683 -1.5902
C -1.6145 -1.5631 -1.5836
C -1.6176 -1.5641 -1.5801
C -1.6098 -1.5602 -1.5819
C -1.6077 -1.5596 -1.5826
C -1.6112 -1.5546 -1.5787
C -1.6106 -1.5577 -1.5753
C -1.6079 -1.5506 -1.5800
C -1.6143 -1.5515 -1.5767
C -1.6199 -1.5520 -1.5810
C -1.6231 -1.5551 -1.5869
C -1.6221 -1.5481 -1.5764
C -1.6253 -1.5473 -1.5774
C -1.6163 -1.5445 -1.5689
C -1.6147 -1.5402 -1.5620
C -1.6174 -1.5386 -1.5624
C -1.6075 -1.5380 -1.5553
C -1.6068 -1.5350 -1.5493
C -1.6033 -1.5400 -1.5554
C -1.5982 -1.5388 -1.5502
C -1.6053 -1.5443 -1.5621
C -1.6011 -1.5456 -1.5619
C -1.6116 -1.5467 -1.5693
C -1.6060 -1.5631 -1.5836
C -1.6084 -1.5656 -1.5838
C -1.6007 -1.5620 -1.5846
C -1.6000 -1.5597 -1.5864
C -1.5967 -1.5645 -1.5853
C -1.5927 -1.5638 -1.5864
C -1.5980 -1.5627 -1.5843
C -1.5986 -1.5695 -1.5859
C -1.6002 -1.5713 -1.5861
C -1.6001 -1.5716 -1.5863
138
REAL frame=115
C -1.6114 -1.5753 -1.5842
C -1.6148 -1.5781 -1.5842
C -1.6129 -1.5701 -1.5836
C -1.6092 -1.5760 -1.5839
C -1.6073 -1.5798 -1.5862
C -1.6020 -1.5779 -1.5861
C -1.6076 -1.5847 -1.5874
C -1.6103 -1.5796 -1.5854
C -1.6149 -1.5826 -1.5831
C -1.6073 -1.5764 -1.5876
C -1.6038 -1.5739 -1.5899
C -1.6084 -1.5746 -1.5880
C -1.6110 -1.5714 -1.5861
C -1.6041 -1.5706 -1.5900
C -1.6018 -1.5642 -1.5878
C -1.6010 -1.5753 -1.5897
C -1.6054 -1.5694 -1.5951
C -1.6051 -1.5769 -1.5991
C -1.6019 -1.5840 -1.5996
C -1.6109 -1.5745 -1.6024
C -1.6098 -1.5797 -1.6057
C -1.6165 -1.5649 -1.6018
C -1.6219 -1.5631 -1.6062
C -1.6201 -1.5574 -1.5988
C -1.6144 -1.5573 -1.5986
C -1.6192 -1.5497 -1.5978
C -1.6101 -1.5593 -1.5949
C -1.6110 -1.5535 -1.5916
C -1.6101 -1.5794 -1.5912
C -1.6129 -1.5848 -1.5911
C -1.6091 -1.5780 -1.5943
C -1.6067 -1.5730 -1.5941
C -1.6104 -1.5830 -1.5981
C -1.6048 -1.5824 -1.6021
C -1.6143 -1.5903 -1.5995
C -1.6126 -1.5943 -1.6000
C -1.6142 -1.5948 -1.5996
C -1.6199 -1.5852 -1.5983
C -1.6171 -1.5785 -1.5989
C -1.6264 -1.5869 -1.5966
C -1.6124 -1.5802 -1.5955
C -1.6149 -1.5770 -1.5934
C -1.6122 -1.5807 -1.5964
C -1.6078 -1.5841 -1.5998
C -1.6098 -1.5872 -1.6019
C -1.6033 -1.5830 -1.5998
C -1.6083 -1.5837 -1.6003
C -1.6121 -1.5874 -1.6021
C -1.6035 -1.5842 -1.6013
C -1.6117 -1.5772 -1.5962
C -1.6157 -1.5769 -1.5944
C -1.6072 -1.5723 -1.5956
C -1.6149 -1.5771 -1.5944
C -1.6136 -1.5733 -1.5928
C -1.6212 -1.5789 -1.5928
C -1.6232 -1.5758 -1.5906
C -1.6249 -1.5818 -1.5944
C -1.6228 -1.5832 -1.5942
C -1.6310 -1.5831 -1.5939
C -1.6334 -1.5814 -1.5937
C -1.6325 -1.5903 -1.5955
C -1.6320 -1.5916 -1.5948
C -1.6367 -1.5906 -1.5954
C -1.6290 -1.5947 -1.5982
C -1.6260 -1.5962 -1.5976
C -1.6314 -1.5984 -1.5992
C -1.6285 -1.5922 -1.5973
C -1.6224 -1.5911 -1.5967
C -1.6335 -1.5899 -1.5971
C -1.6345 -1.5792 -1.5916
C -1.6406 -1.5769 -1.5907
C -1.6331 -1.5796 -1.5913
C -1.6290 -1.5822 -1.5921
C -1.6367 -1.5772 -1.5896
C -1.6413 -1.5732 -1.5881
C -1.6399 -1.5846 -1.5908
C -1.6433 -1.5831 -1.5892
C -1.6444 -1.5880 -1.5916
C -1.6454 -1.5841 -1.5885
C -1.6481 -1.5938 -1.5877
C -1.6461 -1.5896 -1.5987
C -1.6351 -1.5894 -1.5952
C -1.6305 -1.5909 -1.5964
C -1.6326 -1.5733 -1.5888
C -1.6339 -1.5766 -1.5911
C -1.6279 -1.5665 -1.5878
C -1.6266 -1.5641 -1.5868
C -1.6249 -1.5657 -1.5911
C -1.6261 -1.5686 -1.5930
C -1.6235 -1.5630 -1.5944
C -1.6229 -1.5652 -1.5900
C -1.6228 -1.5600 -1.5879
C -1.6203 -1.5701 -1.5912
C -1.6184 -1.5750 -1.5935
C -1.6193 -1.5696 -1.5894
C -1.6207 -1.5669 -1.5879
C -1.6203 -1.5749 -1.5896
C -1.6167 -1.5783 -1.5808
C -1.6262 -1.5637 -1.5913
C -1.6265 -1.5579 -1.5991
C -1.6249 -1.5611 -1.5854
C -1.6307 -1.5623 -1.5914
C -1.6199 -1.5860 -1.5983
C -1.6160 -1.5941 -1.5976
C -1.6142 -1.5664 -1.5878
C -1.6100 -1.5681 -1.5902
C -1.6145 -1.5630 -1.5836
C -1.6173 -1.5645 -1.5798
C -1.6099 -1.5600 -1.5818
C -1.6075 -1.5595 -1.5824
C -1.6111 -1.5546 -1.5788
C -1.6109 -1.5578 -1.5756
C -1.6076 -1.5500 -1.5800
C -1.6144 -1.5514 -1.5766
C -1.6199 -1.5520 -1.5811
C -1.6233 -1.5553 -1.5869
C -1.6220 -1.5481 -1.5762
C -1.6249 -1.5471 -1.5770
C -1.6164 -1.5445 -1.5690
C -1.6147 -1.5402 -1.5619
C -1.6175 -1.5385 -1.5617
C -1.6075 -1.5381 -1.5555
C -1.6069 -1.5352 -1.5494
C -1.6032 -1.5400 -1.5553
C -1.5983 -1.5384 -1.5498
C -1.6054 -1.5441 -1.5621
C -1.6014 -1.5456 -1.5623
C -1.6117 -1.5466 -1.5693
C -1.6061 -1.5630 -1.5835
C -1.6084 -1.5656 -1.5839
C -1.6006 -1.5622 -1.5846
C -1.5998 -1.5599 -1.5861
C -1.5968 -1.5647 -1.5853
C -1.5928 -1.5640 -1.5867
C -1.5977 -1.5632 -1.5843
C -1.5986 -1.5693 -1.5859
C -1.6002 -1.5714 -1.5862
C -1.6001 -1.5715 -1.5864
138
REAL frame=116
C -1.6115 -1.5754 -1.5841
C -1.6149 -1.5775 -1.5847
C -1.6130 -1.5700 -1.5838
C -1.6090 -1.5761 -1.5845
C -1.6074 -1.5796 -1.5862
C -1.6021 -1.5777 -1.5861
C -1.6076 -1.5845 -1.5881
C -1.6104 -1.5796 -1.5853
C -1.6149 -1.5827 -1.5832
C -1.6072 -1.5765 -1.5877
C -1.6038 -1.5741 -1.5898
C -1.6084 -1.5746 -1.5880
C -1.6108 -1.5714 -1.5861
C -1.6040 -1.5705 -1.5901
C -1.6022 -1.5642 -1.5875
C -1.6010 -1.5753 -1.5899
C -1.6055 -1.5695 -1.5950
C -1.6050 -1.5769 -1.5991
C -1.6018 -1.5842 -1.5992
C -1.6108 -1.5745 -1.6025
C -1.6099 -1.5794 -1.6057
C -1.6164 -1.5648 -1.6020
C -1.6219 -1.5632 -1.6061
C -1.6193 -1.5574 -1.5992
C -1.6146 -1.5571 -1.5987
C -1.6190 -1.5495 -1.5978
C -1.6100 -1.5594 -1.5949
C -1.6106 -1.5537 -1.5916
C -1.6102 -1.5794 -1.5912
C -1.6129 -1.5849 -1.5911
C -1.6090 -1.5778 -1.5942
C -1.6067 -1.5728 -1.5940
C -1.6104 -1.5828 -1.5982
C -1.6054 -1.5823 -1.6024
C -1.6144 -1.5903 -1.5996
C -1.6129 -1.5941 -1.5998
C -1.6142 -1.5948 -1.5994
C -1.6199 -1.5853 -1.5985
C -1.6171 -1.5786 -1.5989
C -1.6265 -1.5870 -1.5967
C -1.6123 -1.5802 -1.5956
C -1.6149 -1.5768 -1.5933
C -1.6124 -1.5808 -1.5965
C -1.6077 -1.5840 -1.5997
C -1.6097 -1.5870 -1.6013
C -1.6029 -1.5823 -1.6004
C -1.6083 -1.5838 -1.6003
C -1.6121 -1.5873 -1.6023
C -1.6032 -1.5845 -1.6011
C -1.6118 -1.5772 -1.5962
C -1.6156 -1.5769 -1.5944
C -1.6072 -1.5718 -1.5956
C -1.6151 -1.5772 -1.5945
C -1.6139 -1.5725 -1.5931
C -1.6212 -1.5788 -1.5927
C -1.6231 -1.5759 -1.5907
C -1.6249 -1.5818 -1.5943
C -1.6230 -1.5833 -1.5943
C -1.6309 -1.5832 -1.5938
C -1.6335 -1.5816 -1.5938
C -1.6326 -1.5902 -1.5955
C -1.6320 -1.5913 -1.5946
C -1.6367 -1.5904 -1.5955
C -1.6291 -1.5947 -1.5982
C -1.6264 -1.5962 -1.5974
C -1.6316 -1.5981 -1.5988
C -1.6286 -1.5921 -1.5970
C -1.6225 -1.5911 -1.5967
C -1.6336 -1.5900 -1.5971
C -1.6347 -1.5793 -1.5916
C -1.6406 -1.5769 -1.5905
C -1.6330 -1.5796 -1.5913
C -1.6290 -1.5824 -1.5912
C -1.6366 -1.5772 -1.5897
C -1.6410 -1.5732 -1.5878
C -1.6401 -1.5846 -1.5908
C -1.6438 -1.5836 -1.5893
C -1.6443 -1.5879 -1.5914
C -1.6452 -1.5839 -1.5884
C -1.6484 -1.5932 -1.5885
C -1.6459 -1.5898 -1.5986
C -1.6350 -1.5895 -1.5952
C -1.6306 -1.5905 -1.5965
C -1.6327 -1.5733 -1.5889
C -1.6339 -1.5766 -1.5912
C -1.6280 -1.5664 -1.5877
C -1.6268 -1.5644 -1.5870
C -1.6249 -1.5658 -1.5911
C -1.6259 -1.5686 -1.5931
C -1.6238 -1.5626 -1.5946
C -1.6228 -1.5652 -1.5900
C -1.6229 -1.5601 -1.5880
C -1.6203 -1.5701 -1.5912
C -1.6182 -1.5754 -1.5934
C -1.6193 -1.5695 -1.5893
C -1.6210 -1.5667 -1.5878
C -1.6203 -1.5750 -1.5897
C -1.6161 -1.5781 -1.5805
C -1.6261 -1.5636 -1.5914
C -1.6266 -1.5577 -1.5988
C -1.6253 -1.5604 -1.5853
C -1.6307 -1.5619 -1.5909
C -1.6200 -1.5860 -1.5983
C -1.6160 -1.5942 -1.5973
C -1.6142 -1.5663 -1.5880
C -1.6101 -1.5680 -1.5901
C -1.6145 -1.5630 -1.5836
C -1.6174 -1.5646 -1.5797
C -1.6099 -1.5600 -1.5818
C -1.6074 -1.5592 -1.5822
C -1.6110 -1.5546 -1.5789
C -1.6115 -1.5579 -1.5761
C -1.6074 -1.5492 -1.5802
C -1.6144 -1.5512 -1.5765
C -1.6199 -1.5520 -1.5812
C -1.6234 -1.5554 -1.5870
C -1.6219 -1.5481 -1.5761
C -1.6247 -1.5472 -1.5769
C -1.6165 -1.5446 -1.5691
C -1.6146 -1.5403 -1.5619
C -1.6178 -1.5385 -1.5610
C -1.6075 -1.5381 -1.5555
C -1.6069 -1.5352 -1.5495
C -1.6032 -1.5400 -1.5551
C -1.5984 -1.5380 -1.5495
C -1.6056 -1.5441 -1.5621
C -1.6018 -1.5455 -1.5626
C -1.6118 -1.5466 -1.5692
C -1.6062 -1.5629 -1.5834
C -1.6084 -1.5656 -1.5840
C -1.6005 -1.5624 -1.5845
C -1.5996 -1.5601 -1.5858
C -1.5969 -1.5648 -1.5853
C -1.5930 -1.5640 -1.5869
C -1.5973 -1.5638 -1.5845
C -1.5987 -1.5691 -1.5858
C -1.6001 -1.5715 -1.5862
C -1.6001 -1.5713 -1.5864
138
REAL frame=117
C -1.6115 -1.5754 -1.5842
C -1.6149 -1.5772 -1.5852
C -1.6130 -1.5701 -1.5841
C -1.6087 -1.5761 -1.5846
C -1.6076 -1.5795 -1.5863
C -1.6022 -1.5776 -1.5860
C -1.6076 -1.5842 -1.5889
C -1.6104 -1.5797 -1.5853
C -1.6148 -1.5827 -1.5832
C -1.6071 -1.5765 -1.5877
C -1.6039 -1.5742 -1.5896
C -1.6084 -1.5746 -1.5881
C -1.6105 -1.5717 -1.5859
C -1.6039 -1.5705 -1.5902
C -1.6025 -1.5642 -1.5872
C -1.6011 -1.5752 -1.5902
C -1.6056 -1.5696 -1.5949
C -1.6049 -1.5769 -1.5991
C -1.6016 -1.5844 -1.5989
C -1.6107 -1.5746 -1.6025
C -1.6102 -1.5792 -1.6057
C -1.6163 -1.5647 -1.6022
C -1.6220 -1.5632 -1.6060
C -1.6184 -1.5576 -1.5993
C -1.6147 -1.5570 -1.5987
C -1.6187 -1.5493 -1.5980
C -1.6100 -1.5595 -1.5949
C -1.6102 -1.5539 -1.5916
C -1.6103 -1.5795 -1.5913
C -1.6128 -1.5849 -1.5910
C -1.6090 -1.5776 -1.5941
C -1.6067 -1.5726 -1.5939
C -1.6103 -1.5827 -1.5982
C -1.6063 -1.5824 -1.6025
C -1.6145 -1.5904 -1.5996
C -1.6133 -1.5941 -1.5995
C -1.6141 -1.5948 -1.5995
C -1.6198 -1.5853 -1.5986
C -1.6171 -1.5786 -1.5989
C -1.6267 -1.5871 -1.5968
C -1.6122 -1.5801 -1.5957
C -1.6148 -1.5767 -1.5932
C -1.6125 -1.5809 -1.5967
C -1.6076 -1.5839 -1.5997
C -1.6095 -1.5870 -1.6009
C -1.6026 -1.5817 -1.6009
C -1.6084 -1.5839 -1.6004
C -1.6121 -1.5874 -1.6025
C -1.6028 -1.5847 -1.6009
C -1.6118 -1.5772 -1.5962
C -1.6155 -1.5770 -1.5946
C -1.6073 -1.5715 -1.5957
C -1.6153 -1.5772 -1.5945
C -1.6143 -1.5718 -1.5933
C -1.6213 -1.5787 -1.5926
C -1.6230 -1.5760 -1.5907
C -1.6250 -1.5819 -1.5943
C -1.6231 -1.5835 -1.5946
C -1.6309 -1.5832 -1.5938
C -1.6336 -1.5817 -1.5939
C -1.6326 -1.5901 -1.5955
C -1.6319 -1.5911 -1.5945
C -1.6367 -1.5902 -1.5957
C -1.6293 -1.5946 -1.5980
C -1.6266 -1.5961 -1.5975
C -1.6318 -1.5978 -1.5986
C -1.6286 -1.5920 -1.5969
C -1.6225 -1.5910 -1.5966
C -1.6336 -1.5900 -1.5971
C -1.6348 -1.5796 -1.5917
C -1.6406 -1.5770 -1.5904
C -1.6328 -1.5796 -1.5913
C -1.6290 -1.5825 -1.5909
C -1.6366 -1.5772 -1.5897
C -1.6408 -1.5733 -1.5876
C -1.6402 -1.5845 -1.5910
C -1.6442 -1.5842 -1.5894
C -1.6443 -1.5877 -1.5913
C -1.6448 -1.5836 -1.5882
C -1.6487 -1.5926 -1.5891
C -1.6454 -1.5900 -1.5986
C -1.6350 -1.5896 -1.5952
C -1.6307 -1.5902 -1.5965
C -1.6327 -1.5732 -1.5891
C -1.6340 -1.5766 -1.5913
C -1.6280 -1.5663 -1.5876
C -1.6273 -1.5646 -1.5871
C -1.6249 -1.5658 -1.5911
C -1.6257 -1.5687 -1.5930
C -1.6240 -1.5623 -1.5946
C -1.6226 -1.5651 -1.5900
C -1.6229 -1.5603 -1.5880
C -1.6202 -1.5701 -1.5912
C -1.6182 -1.5757 -1.5932
C -1.6194 -1.5694 -1.5892
C -1.6214 -1.5666 -1.5877
C -1.6203 -1.5752 -1.5897
C -1.6157 -1.5780 -1.5805
C -1.6261 -1.5634 -1.5914
C -1.6266 -1.5575 -1.5987
C -1.6258 -1.5600 -1.5851
C -1.6307 -1.5617 -1.5904
C -1.6200 -1.5859 -1.5983
C -1.6162 -1.5942 -1.5974
C -1.6141 -1.5661 -1.5881
C -1.6101 -1.5678 -1.5901
C -1.6145 -1.5631 -1.5835
C -1.6178 -1.5645 -1.5799
C -1.6099 -1.5599 -1.5819
C -1.6073 -1.5589 -1.5820
C -1.6109 -1.5546 -1.5789
C -1.6124 -1.5579 -1.5767
C -1.6072 -1.5485 -1.5805
C -1.6145 -1.5511 -1.5765
C -1.6200 -1.5520 -1.5812
C -1.6234 -1.5553 -1.5870
C -1.6218 -1.5481 -1.5760
C -1.6245 -1.5473 -1.5772
C -1.6165 -1.5447 -1.5692
C -1.6146 -1.5403 -1.5619
C -1.6181 -1.5386 -1.5604
C -1.6075 -1.5382 -1.5555
C -1.6068 -1.5350 -1.5496
C -1.6032 -1.5400 -1.5549
C -1.5984 -1.5376 -1.5491
C -1.6057 -1.5440 -1.5622
C -1.6023 -1.5455 -1.5627
C -1.6119 -1.5465 -1.5691
C -1.6063 -1.5628 -1.5833
C -1.6084 -1.5656 -1.5841
C -1.6005 -1.5625 -1.5844
C -1.5993 -1.5603 -1.5854
C -1.5970 -1.5648 -1.5852
C -1.5931 -1.5638 -1.5869
C -1.5969 -1.5645 -1.5847
C -1.5988 -1.5691 -1.5858
C -1.6001 -1.5716 -1.5864
C -1.6001 -1.5711 -1.5864
138
REAL frame=118
C -1.6115 -1.5756 -1.5842
C -1.6149 -1.5771 -1.5854
C -1.6128 -1.5703 -1.5843
C -1.6087 -1.5760 -1.5842
C -1.6077 -1.5794 -1.5862
C -1.6023 -1.5775 -1.5859
C -1.6076 -1.5840 -1.5895
C -1.6104 -1.5797 -1.5853
C -1.6148 -1.5828 -1.5833
C -1.6071 -1.5765 -1.5877
C -1.6039 -1.5744 -1.5893
C -1.6084 -1.5746 -1.5882
C -1.6101 -1.5720 -1.5856
C -1.6038 -1.5706 -1.5903
C -1.6026 -1.5640 -1.5870
C -1.6011 -1.5752 -1.5905
C -1.6057 -1.5695 -1.5948
C -1.6049 -1.5769 -1.5990
C -1.6015 -1.5845 -1.5986
C -1.6106 -1.5746 -1.6026
C -1.6106 -1.5794 -1.6057
C -1.6162 -1.5647 -1.6023
C -1.6220 -1.5633 -1.6060
C -1.6175 -1.5579 -1.5993
C -1.6149 -1.5569 -1.5986
C -1.6184 -1.5491 -1.5983
C -1.6099 -1.5597 -1.5949
C -1.6098 -1.5539 -1.5917
C -1.6104 -1.5796 -1.5913
C -1.6128 -1.5850 -1.5909
C -1.6089 -1.5774 -1.5941
C -1.6068 -1.5722 -1.5939
C -1.6103 -1.5826 -1.5982
C -1.6071 -1.5827 -1.6023
C -1.6145 -1.5904 -1.5996
C -1.6136 -1.5943 -1.5994
C -1.6142 -1.5949 -1.5998
C -1.6197 -1.5853 -1.5986
C -1.6170 -1.5786 -1.5990
C -1.6268 -1.5872 -1.5969
C -1.6122 -1.5800 -1.5959
C -1.6148 -1.5766 -1.5931
C -1.6126 -1.5809 -1.5968
C -1.6076 -1.5838 -1.5998
C -1.6092 -1.5874 -1.6007
C -1.6024 -1.5813 -1.6010
C -1.6084 -1.5839 -1.6004
C -1.6121 -1.5876 -1.6027
C -1.6024 -1.5846 -1.6007
C -1.6118 -1.5773 -1.5962
C -1.6156 -1.5771 -1.5949
C -1.6073 -1.5713 -1.5958
C -1.6154 -1.5774 -1.5946
C -1.6147 -1.5714 -1.5935
C -1.6214 -1.5785 -1.5925
C -1.6230 -1.5762 -1.5907
C -1.6250 -1.5821 -1.5942
C -1.6233 -1.5838 -1.5950
C -1.6310 -1.5833 -1.5937
C -1.6335 -1.5818 -1.5938
C -1.6326 -1.5900 -1.5955
C -1.6319 -1.5910 -1.5945
C -1.6367 -1.5901 -1.5958
C -1.6295 -1.5946 -1.5977
C -1.6265 -1.5960 -1.5978
C -1.6320 -1.5975 -1.5986
C -1.6285 -1.5920 -1.5968
C -1.6226 -1.5909 -1.5965
C -1.6337 -1.5899 -1.5971
C -1.6349 -1.5799 -1.5917
C -1.6407 -1.5770 -1.5902
C -1.6327 -1.5796 -1.5913
C -1.6289 -1.5825 -1.5911
C -1.6366 -1.5772 -1.5896
C -1.6405 -1.5733 -1.5874
C -1.6402 -1.5845 -1.5911
C -1.6443 -1.5845 -1.5896
C -1.6443 -1.5875 -1.5913
C -1.6441 -1.5834 -1.5879
C -1.6489 -1.5922 -1.5894
C -1.6446 -1.5901 -1.5985
C -1.6350 -1.5896 -1.5952
C -1.6309 -1.5902 -1.5966
C -1.6328 -1.5731 -1.5893
C -1.6341 -1.5766 -1.5914
C -1.6279 -1.5663 -1.5876
C -1.6278 -1.5646 -1.5871
C -1.6249 -1.5658 -1.5912
C -1.6255 -1.5688 -1.5930
C -1.6241 -1.5623 -1.5943
C -1.6224 -1.5651 -1.5900
C -1.6230 -1.5604 -1.5880
C -1.6202 -1.5702 -1.5912
C -1.6184 -1.5757 -1.5931
C -1.6195 -1.5693 -1.5891
C -1.6218 -1.5665 -1.5876
C -1.6202 -1.5752 -1.5897
C -1.6154 -1.5781 -1.5807
C -1.6261 -1.5633 -1.5914
C -1.6266 -1.5574 -1.5988
C -1.6262 -1.5597 -1.5849
C -1.6305 -1.5617 -1.5900
C -1.6201 -1.5859 -1.5983
C -1.6164 -1.5941 -1.5977
C -1.6140 -1.5660 -1.5882
C -1.6102 -1.5676 -1.5901
C -1.6145 -1.5631 -1.5835
C -1.6183 -1.5642 -1.5804
C -1.6099 -1.5599 -1.5820
C -1.6073 -1.5586 -1.5819
C -1.6107 -1.5546 -1.5788
C -1.6131 -1.5578 -1.5772
C -1.6070 -1.5480 -1.5809
C -1.6145 -1.5511 -1.5765
C -1.6201 -1.5519 -1.5812
C -1.6233 -1.5551 -1.5870
C -1.6216 -1.5481 -1.5760
C -1.6244 -1.5475 -1.5777
C -1.6165 -1.5448 -1.5691
C -1.6145 -1.5403 -1.5620
C -1.6184 -1.5387 -1.5602
C -1.6076 -1.5382 -1.5554
C -1.6065 -1.5347 -1.5497
C -1.6032 -1.5399 -1.5548
C -1.5984 -1.5373 -1.5489
C -1.6058 -1.5440 -1.5623
C -1.6027 -1.5455 -1.5628
C -1.6120 -1.5465 -1.5690
C -1.6062 -1.5628 -1.5833
C -1.6084 -1.5656 -1.5842
C -1.6005 -1.5625 -1.5842
C -1.5990 -1.5605 -1.5850
C -1.5970 -1.5649 -1.5851
C -1.5931 -1.5636 -1.5869
C -1.5966 -1.5650 -1.5849
C -1.5989 -1.5691 -1.5858
C -1.6001 -1.5717 -1.5864
C -1.6001 -1.5710 -1.5864
138
REAL frame=119
C -1.6115 -1.5757 -1.5844
C -1.6149 -1.5773 -1.5854
C -1.6127 -1.5705 -1.5845
C -1.6089 -1.5758 -1.5834
C -1.6079 -1.5793 -1.5862
C -1.6025 -1.5775 -1.5858
C -1.6077 -1.5837 -1.5899
C -1.6103 -1.5797 -1.5854
C -1.6147 -1.5829 -1.5834
C -1.6071 -1.5765 -1.5877
C -1.6039 -1.5744 -1.5890
C -1.6083 -1.5746 -1.5884
C -1.6098 -1.5724 -1.5853
C -1.6037 -1.5707 -1.5903
C -1.6026 -1.5639 -1.5871
C -1.6010 -1.5751 -1.5907
C -1.6058 -1.5694 -1.5947
C -1.6048 -1.5770 -1.5990
C -1.6013 -1.5846 -1.5986
C -1.6105 -1.5746 -1.6026
C -1.6110 -1.5798 -1.6056
C -1.6160 -1.5647 -1.6024
C -1.6221 -1.5632 -1.6060
C -1.6166 -1.5584 -1.5991
C -1.6151 -1.5568 -1.5985
C -1.6181 -1.5490 -1.5986
C -1.6099 -1.5597 -1.5949
C -1.6094 -1.5538 -1.5919
C -1.6105 -1.5797 -1.5913
C -1.6127 -1.5850 -1.5908
C -1.6089 -1.5772 -1.5941
C -1.6070 -1.5719 -1.5940
C -1.6102 -1.5825 -1.5982
C -1.6076 -1.5830 -1.6020
C -1.6146 -1.5903 -1.5996
C -1.6138 -1.5947 -1.5994
C -1.6142 -1.5950 -1.6004
C -1.6197 -1.5852 -1.5987
C -1.6171 -1.5787 -1.5990
C -1.6268 -1.5873 -1.5971
C -1.6122 -1.5798 -1.5959
C -1.6147 -1.5765 -1.5931
C -1.6126 -1.5809 -1.5969
C -1.6076 -1.5836 -1.5999
C -1.6088 -1.5880 -1.6008
C -1.6023 -1.5811 -1.6007
C -1.6084 -1.5840 -1.6004
C -1.6122 -1.5880 -1.6028
C -1.6022 -1.5845 -1.6006
C -1.6118 -1.5773 -1.5962
C -1.6158 -1.5774 -1.5953
C -1.6073 -1.5714 -1.5959
C -1.6156 -1.5775 -1.5946
C -1.6149 -1.5714 -1.5934
C -1.6215 -1.5784 -1.5924
C -1.6229 -1.5763 -1.5908
C -1.6251 -1.5822 -1.5941
C -1.6234 -1.5842 -1.5954
C -1.6311 -1.5833 -1.5936
C -1.6332 -1.5818 -1.5937
C -1.6325 -1.5898 -1.5955
C -1.6319 -1.5909 -1.5945
C -1.6367 -1.5899 -1.5960
C -1.6298 -1.5946 -1.5974
C -1.6263 -1.5957 -1.5982
C -1.6322 -1.5974 -1.5988
C -1.6284 -1.5921 -1.5969
C -1.6227 -1.5908 -1.5964
C -1.6337 -1.5899 -1.5970
C -1.6351 -1.5801 -1.5918
C -1.6407 -1.5770 -1.5901
C -1.6326 -1.5797 -1.5912
C -1.6288 -1.5823 -1.5919
C -1.6367 -1.5772 -1.5895
C -1.6403 -1.5734 -1.5873
C -1.6402 -1.5845 -1.5912
C -1.6441 -1.5847 -1.5897
C -1.6445 -1.5874 -1.5913
C -1.6434 -1.5831 -1.5878
C -1.6490 -1.5919 -1.5894
C -1.6437 -1.5900 -1.5984
C -1.6350 -1.5897 -1.5951
C -1.6311 -1.5904 -1.5966
C -1.6329 -1.5731 -1.5894
C -1.6342 -1.5767 -1.5915
C -1.6279 -1.5662 -1.5876
C -1.6283 -1.5645 -1.5870
C -1.6249 -1.5658 -1.5913
C -1.6253 -1.5689 -1.5930
C -1.6239 -1.5623 -1.5938
C -1.6223 -1.5650 -1.5901
C -1.6230 -1.5605 -1.5880
C -1.6202 -1.5703 -1.5912
C -1.6186 -1.5755 -1.5931
C -1.6195 -1.5692 -1.5890
C -1.6221 -1.5664 -1.5875
C -1.6200 -1.5752 -1.5897
C -1.6154 -1.5783 -1.5811
C -1.6262 -1.5631 -1.5914
C -1.6265 -1.5573 -1.5991
C -1.6264 -1.5596 -1.5847
C -1.6302 -1.5618 -1.5898
C -1.6201 -1.5859 -1.5983
C -1.6167 -1.5939 -1.5983
C -1.6140 -1.5659 -1.5881
C -1.6102 -1.5675 -1.5901
C -1.6145 -1.5632 -1.5835
C -1.6188 -1.5638 -1.5810
C -1.6098 -1.5600 -1.5822
C -1.6073 -1.5583 -1.5820
C -1.6106 -1.5545 -1.5788
C -1.6135 -1.5576 -1.5776
C -1.6069 -1.5479 -1.5812
C -1.6146 -1.5510 -1.5766
C -1.6201 -1.5518 -1.5811
C -1.6231 -1.5548 -1.5870
C -1.6215 -1.5481 -1.5761
C -1.6244 -1.5477 -1.5781
C -1.6166 -1.5448 -1.5689
C -1.6144 -1.5404 -1.5620
C -1.6188 -1.5389 -1.5603
C -1.6076 -1.5382 -1.5553
C -1.6062 -1.5344 -1.5499
C -1.6031 -1.5399 -1.5547
C -1.5985 -1.5372 -1.5488
C -1.6059 -1.5440 -1.5623
C -1.6031 -1.5456 -1.5627
C -1.6121 -1.5465 -1.5690
C -1.6060 -1.5628 -1.5834
C -1.6085 -1.5656 -1.5842
C -1.6006 -1.5625 -1.5840
C -1.5988 -1.5608 -1.5844
C -1.5971 -1.5649 -1.5851
C -1.5931 -1.5632 -1.5869
C -1.5964 -1.5654 -1.5851
C -1.5991 -1.5691 -1.5858
C -1.6000 -1.5717 -1.5866
C -1.6001 -1.5708 -1.5864
138
REAL frame=120
C -1.6115 -1.5758 -1.5846
C -1.6148 -1.5776 -1.5851
C -1.6125 -1.5708 -1.5847
C -1.6093 -1.5755 -1.5825
C -1.6080 -1.5792 -1.5861
C -1.6026 -1.5775 -1.5856
C -1.6078 -1.5836 -1.5900
C -1.6102 -1.5797 -1.5856
C -1.6147 -1.5830 -1.5835
C -1.6072 -1.5765 -1.5876
C -1.6039 -1.5742 -1.5887
C -1.6082 -1.5746 -1.5886
C -1.6097 -1.5727 -1.5852
C -1.6037 -1.5708 -1.5903
C -1.6023 -1.5638 -1.5873
C -1.6009 -1.5751 -1.5909
C -1.6059 -1.5693 -1.5947
C -1.6048 -1.5770 -1.5989
C -1.6012 -1.5846 -1.5987
C -1.6104 -1.5747 -1.6027
C -1.6114 -1.5804 -1.6055
C -1.6158 -1.5647 -1.6025
C -1.6222 -1.5632 -1.6060
C -1.6157 -1.5590 -1.5988
C -1.6153 -1.5567 -1.5984
C -1.6179 -1.5490 -1.5987
C -1.6098 -1.5597 -1.5949
C -1.6090 -1.5538 -1.5920
C -1.6106 -1.5797 -1.5912
C -1.6127 -1.5851 -1.5908
C -1.6089 -1.5771 -1.5942
C -1.6071 -1.5717 -1.5941
C -1.6102 -1.5824 -1.5982
C -1.6078 -1.5834 -1.6017
C -1.6145 -1.5902 -1.5996
C -1.6138 -1.5951 -1.5995
C -1.6142 -1.5951 -1.6011
C -1.6197 -1.5850 -1.5986
C -1.6171 -1.5787 -1.5991
C -1.6269 -1.5875 -1.5972
C -1.6122 -1.5796 -1.5960
C -1.6147 -1.5765 -1.5931
C -1.6126 -1.5807 -1.5969
C -1.6077 -1.5836 -1.6000
C -1.6083 -1.5887 -1.6013
C -1.6022 -1.5811 -1.6003
C -1.6084 -1.5840 -1.6003
C -1.6122 -1.5885 -1.6029
C -1.6020 -1.5842 -1.6006
C -1.6118 -1.5773 -1.5963
C -1.6160 -1.5777 -1.5956
C -1.6073 -1.5717 -1.5960
C -1.6157 -1.5775 -1.5947
C -1.6150 -1.5718 -1.5932
C -1.6216 -1.5783 -1.5925
C -1.6228 -1.5763 -1.5908
C -1.6251 -1.5824 -1.5939
C -1.6236 -1.5845 -1.5959
C -1.6313 -1.5833 -1.5936
C -1.6329 -1.5817 -1.5934
C -1.6324 -1.5897 -1.5954
C -1.6320 -1.5908 -1.5946
C -1.6367 -1.5897 -1.5961
C -1.6301 -1.5946 -1.5971
C -1.6262 -1.5954 -1.5985
C -1.6323 -1.5973 -1.5990
C -1.6283 -1.5922 -1.5969
C -1.6228 -1.5908 -1.5963
C -1.6338 -1.5898 -1.5970
C -1.6352 -1.5802 -1.5918
C -1.6407 -1.5771 -1.5899
C -1.6324 -1.5797 -1.5912
C -1.6287 -1.5821 -1.5927
C -1.6369 -1.5771 -1.5894
C -1.6403 -1.5734 -1.5872
C -1.6402 -1.5845 -1.5914
C -1.6437 -1.5847 -1.5898
C -1.6446 -1.5872 -1.5913
C -1.6426 -1.5829 -1.5878
C -1.6492 -1.5916 -1.5892
C -1.6429 -1.5896 -1.5981
C -1.6350 -1.5897 -1.5951
C -1.6313 -1.5909 -1.5967
C -1.6330 -1.5731 -1.5896
C -1.6343 -1.5767 -1.5916
C -1.6278 -1.5662 -1.5876
C -1.6285 -1.5643 -1.5868
C -1.6249 -1.5657 -1.5914
C -1.6252 -1.5690 -1.5930
C -1.6236 -1.5626 -1.5933
C -1.6222 -1.5651 -1.5901
C -1.6230 -1.5606 -1.5879
C -1.6202 -1.5703 -1.5911
C -1.6189 -1.5752 -1.5931
C -1.6194 -1.5691 -1.5890
C -1.6223 -1.5664 -1.5875
C -1.6199 -1.5752 -1.5896
C -1.6156 -1.5786 -1.5815
C -1.6262 -1.5628 -1.5913
C -1.6265 -1.5572 -1.5995
C -1.6265 -1.5597 -1.5846
C -1.6299 -1.5621 -1.5899
C -1.6202 -1.5859 -1.5983
C -1.6171 -1.5936 -1.5990
C -1.6140 -1.5657 -1.5879
C -1.6103 -1.5673 -1.5901
C -1.6145 -1.5632 -1.5836
C -1.6191 -1.5635 -1.5814
C -1.6097 -1.5600 -1.5823
C -1.6073 -1.5582 -1.5822
C -1.6106 -1.5544 -1.5788
C -1.6135 -1.5574 -1.5776
C -1.6069 -1.5482 -1.5813
C -1.6146 -1.5511 -1.5767
C -1.6202 -1.5517 -1.5810
C -1.6229 -1.5544 -1.5869
C -1.6214 -1.5481 -1.5762
C -1.6245 -1.5478 -1.5785
C -1.6166 -1.5448 -1.5688
C -1.6144 -1.5404 -1.5620
C -1.6190 -1.5390 -1.5608
C -1.6077 -1.5382 -1.5551
C -1.6058 -1.5341 -1.5499
C -1.6032 -1.5398 -1.5546
C -1.5984 -1.5373 -1.5488
C -1.6060 -1.5440 -1.5622
C -1.6034 -1.5456 -1.5626
C -1.6122 -1.5465 -1.5689
C -1.6059 -1.5629 -1.5835
C -1.6085 -1.5657 -1.5843
C -1.6007 -1.5625 -1.5838
C -1.5987 -1.5609 -1.5837
C -1.5971 -1.5649 -1.5850
C -1.5931 -1.5627 -1.5869
C -1.5964 -1.5656 -1.5852
C -1.5993 -1.5691 -1.5859
C -1.5999 -1.5717 -1.5867
C -1.6001 -1.5708 -1.5864
138
REAL frame=121
C -1.6125 -1.5769 -1.5858
C -1.6157 -1.5790 -1.5858
C -1.6134 -1.5721 -1.5860
C -1.6108 -1.5764 -1.5830
C -1.6091 -1.5803 -1.5872
C -1.6037 -1.5786 -1.5866
C -1.6091 -1.5847 -1.5908
C -1.6112 -1.5807 -1.5868
C -1.6157 -1.5841 -1.5846
C -1.6083 -1.5775 -1.5887
C -1.6049 -1.5751 -1.5896
C -1.6091 -1.5757 -1.5898
C -1.6107 -1.5739 -1.5864
C -1.6047 -1.5719 -1.5913
C -1.6030 -1.5649 -1.5886
C -1.6018 -1.5762 -1.5920
C -1.6070 -1.5703 -1.5958
C -1.6059 -1.5781 -1.5998
C -1.6022 -1.5856 -1.5999
C -1.6114 -1.5758 -1.6038
C -1.6127 -1.5821 -1.6064
C -1.6168 -1.5659 -1.6036
C -1.6233 -1.5642 -1.6070
C -1.6160 -1.5608 -1.5997
C -1.6165 -1.5579 -1.5994
C -1.6190 -1.5501 -1.5998
C -1.6109 -1.5607 -1.5960
C -1.6098 -1.5548 -1.5931
C -1.6117 -1.5806 -1.5922
C -1.6137 -1.5863 -1.5919
C -1.6100 -1.5781 -1.5953
C -1.6082 -1.5727 -1.5953
C -1.6113 -1.5834 -1.5992
C -1.6086 -1.5848 -1.6024
C -1.6155 -1.5912 -1.6006
C -1.6147 -1.5965 -1.6007
C -1.6152 -1.5961 -1.6027
C -1.6207 -1.5860 -1.5997
C -1.6181 -1.5799 -1.6003
C -1.6279 -1.5888 -1.5985
C -1.6133 -1.5805 -1.5971
C -1.6157 -1.5776 -1.5942
C -1.6136 -1.5817 -1.5980
C -1.6087 -1.5847 -1.6012
C -1.6090 -1.5905 -1.6030
C -1.6032 -1.5822 -1.6007
C -1.6094 -1.5851 -1.6013
C -1.6133 -1.5901 -1.6040
C -1.6030 -1.5850 -1.6016
C -1.6129 -1.5785 -1.5974
C -1.6174 -1.5791 -1.5969
C -1.6084 -1.5733 -1.5970
C -1.6169 -1.5786 -1.5958
C -1.6160 -1.5737 -1.5941
C -1.6227 -1.5795 -1.5936
C -1.6238 -1.5774 -1.5920
C -1.6261 -1.5837 -1.5948
C -1.6248 -1.5859 -1.5974
C -1.6324 -1.5845 -1.5946
C -1.6337 -1.5828 -1.5941
C -1.6334 -1.5907 -1.5964
C -1.6330 -1.5919 -1.5957
C -1.6376 -1.5907 -1.5971
C -1.6313 -1.5957 -1.5981
C -1.6272 -1.5964 -1.5996
C -1.6335 -1.5985 -1.6003
C -1.6293 -1.5933 -1.5979
C -1.6239 -1.5918 -1.5973
C -1.6349 -1.5908 -1.5980
C -1.6364 -1.5814 -1.5929
C -1.6417 -1.5784 -1.5910
C -1.6333 -1.5810 -1.5923
C -1.6295 -1.5829 -1.5945
C -1.6381 -1.5783 -1.5905
C -1.6415 -1.5745 -1.5883
C -1.6412 -1.5857 -1.5926
C -1.6442 -1.5855 -1.5910
C -1.6456 -1.5882 -1.5925
C -1.6430 -1.5839 -1.5890
C -1.6503 -1.5925 -1.5900
C -1.6435 -1.5902 -1.5990
C -1.6360 -1.5908 -1.5963
C -1.6326 -1.5925 -1.5978
C -1.6340 -1.5743 -1.5907
C -1.6354 -1.5779 -1.5928
C -1.6288 -1.5672 -1.5887
C -1.6293 -1.5652 -1.5878
C -1.6259 -1.5669 -1.5926
C -1.6262 -1.5701 -1.5942
C -1.6244 -1.5640 -1.5940
C -1.6233 -1.5663 -1.5914
C -1.6240 -1.5617 -1.5890
C -1.6212 -1.5715 -1.5922
C -1.6203 -1.5759 -1.5941
C -1.6204 -1.5702 -1.5901
C -1.6234 -1.5674 -1.5888
C -1.6208 -1.5762 -1.5907
C -1.6169 -1.5800 -1.5831
C -1.6273 -1.5638 -1.5925
C -1.6276 -1.5584 -1.6012
C -1.6274 -1.5609 -1.5857
C -1.6307 -1.5635 -1.5913
C -1.6213 -1.5870 -1.5994
C -1.6183 -1.5943 -1.6007
C -1.6151 -1.5667 -1.5889
C -1.6114 -1.5682 -1.5913
C -1.6157 -1.5644 -1.5848
C -1.6200 -1.5643 -1.5828
C -1.6106 -1.5611 -1.5835
C -1.6085 -1.5593 -1.5837
C -1.6116 -1.5554 -1.5800
C -1.6143 -1.5583 -1.5785
C -1.6080 -1.5499 -1.5823
C -1.6157 -1.5523 -1.5779
C -1.6214 -1.5527 -1.5820
C -1.6237 -1.5553 -1.5879
C -1.6223 -1.5492 -1.5775
C -1.6256 -1.5490 -1.5799
C -1.6176 -1.5459 -1.5698
C -1.6154 -1.5417 -1.5632
C -1.6202 -1.5403 -1.5628
C -1.6088 -1.5392 -1.5562
C -1.6065 -1.5351 -1.5511
C -1.6042 -1.5410 -1.5559
C -1.5994 -1.5387 -1.5501
C -1.6071 -1.5452 -1.5633
C -1.6047 -1.5468 -1.5636
C -1.6134 -1.5476 -1.5701
C -1.6068 -1.5640 -1.5847
C -1.6095 -1.5667 -1.5855
C -1.6018 -1.5635 -1.5846
C -1.5997 -1.5620 -1.5841
C -1.5982 -1.5660 -1.5861
C -1.5941 -1.5634 -1.5880
C -1.5975 -1.5666 -1.5862
C -1.6004 -1.5701 -1.5871
C -1.6009 -1.5728 -1.5879
C -1.6013 -1.5718 -1.5874
138
REAL frame=122
C -1.6126 -1.5770 -1.5859
C -1.6156 -1.5791 -1.5854
C -1.6133 -1.5723 -1.5861
C -1.6112 -1.5763 -1.5827
C -1.6092 -1.5804 -1.5873
C -1.6038 -1.5788 -1.5866
C -1.6094 -1.5848 -1.5902
C -1.6111 -1.5807 -1.5869
C -1.6157 -1.5841 -1.5847
C -1.6083 -1.5775 -1.5887
C -1.6047 -1.5748 -1.5893
C -1.6090 -1.5758 -1.5900
C -1.6107 -1.5738 -1.5867
C -1.6047 -1.5720 -1.5913
C -1.6025 -1.5650 -1.5890
C -1.6017 -1.5763 -1.5919
C -1.6071 -1.5702 -1.5958
C -1.6059 -1.5782 -1.5998
C -1.6022 -1.5856 -1.6000
C -1.6113 -1.5760 -1.6038
C -1.6129 -1.5825 -1.6062
C -1.6166 -1.5660 -1.6036
C -1.6233 -1.5641 -1.6071
C -1.6154 -1.5612 -1.5998
C -1.6166 -1.5580 -1.5994
C -1.6191 -1.5502 -1.5997
C -1.6108 -1.5605 -1.5960
C -1.6097 -1.5548 -1.5931
C -1.6117 -1.5805 -1.5921
C -1.6137 -1.5864 -1.5919
C -1.6101 -1.5781 -1.5954
C -1.6083 -1.5726 -1.5954
C -1.6114 -1.5833 -1.5991
C -1.6080 -1.5848 -1.6023
C -1.6154 -1.5911 -1.6006
C -1.6143 -1.5966 -1.6010
C -1.6151 -1.5960 -1.6030
C -1.6208 -1.5859 -1.5997
C -1.6181 -1.5799 -1.6003
C -1.6279 -1.5890 -1.5986
C -1.6133 -1.5803 -1.5971
C -1.6157 -1.5777 -1.5943
C -1.6136 -1.5815 -1.5980
C -1.6087 -1.5848 -1.6013
C -1.6087 -1.5910 -1.6038
C -1.6031 -1.5822 -1.6002
C -1.6094 -1.5851 -1.6013
C -1.6133 -1.5905 -1.6040
C -1.6030 -1.5848 -1.6017
C -1.6130 -1.5785 -1.5975
C -1.6176 -1.5793 -1.5970
C -1.6085 -1.5738 -1.5969
C -1.6170 -1.5785 -1.5958
C -1.6159 -1.5746 -1.5938
C -1.6228 -1.5796 -1.5936
C -1.6237 -1.5773 -1.5920
C -1.6262 -1.5838 -1.5947
C -1.6251 -1.5861 -1.5978
C -1.6326 -1.5845 -1.5946
C -1.6335 -1.5827 -1.5938
C -1.6335 -1.5906 -1.5963
C -1.6331 -1.5918 -1.5957
C -1.6374 -1.5904 -1.5969
C -1.6314 -1.5956 -1.5981
C -1.6273 -1.5963 -1.5993
C -1.6336 -1.5987 -1.6003
C -1.6295 -1.5933 -1.5978
C -1.6239 -1.5918 -1.5972
C -1.6349 -1.5908 -1.5980
C -1.6365 -1.5813 -1.5927
C -1.6417 -1.5786 -1.5909
C -1.6333 -1.5810 -1.5923
C -1.6293 -1.5829 -1.5947
C -1.6382 -1.5783 -1.5905
C -1.6419 -1.5744 -1.5883
C -1.6412 -1.5857 -1.5927
C -1.6437 -1.5851 -1.5911
C -1.6456 -1.5880 -1.5925
C -1.6426 -1.5837 -1.5892
C -1.6504 -1.5922 -1.5895
C -1.6435 -1.5895 -1.5989
C -1.6360 -1.5908 -1.5962
C -1.6328 -1.5931 -1.5977
C -1.6341 -1.5744 -1.5907
C -1.6354 -1.5779 -1.5929
C -1.6288 -1.5672 -1.5888
C -1.6288 -1.5648 -1.5878
C -1.6259 -1.5669 -1.5927
C -1.6262 -1.5699 -1.5945
C -1.6242 -1.5643 -1.5937
C -1.6234 -1.5665 -1.5915
C -1.6240 -1.5617 -1.5889
C -1.6212 -1.5716 -1.5922
C -1.6207 -1.5756 -1.5939
C -1.6204 -1.5702 -1.5901
C -1.6232 -1.5673 -1.5888
C -1.6207 -1.5761 -1.5907
C -1.6173 -1.5801 -1.5834
C -1.6273 -1.5636 -1.5924
C -1.6278 -1.5585 -1.6015
C -1.6272 -1.5610 -1.5858
C -1.6305 -1.5637 -1.5917
C -1.6213 -1.5870 -1.5994
C -1.6184 -1.5939 -1.6012
C -1.6151 -1.5666 -1.5887
C -1.6114 -1.5681 -1.5914
C -1.6158 -1.5645 -1.5849
C -1.6196 -1.5641 -1.5827
C -1.6105 -1.5610 -1.5835
C -1.6086 -1.5595 -1.5841
C -1.6117 -1.5552 -1.5802
C -1.6137 -1.5581 -1.5781
C -1.6082 -1.5506 -1.5819
C -1.6157 -1.5523 -1.5779
C -1.6214 -1.5527 -1.5819
C -1.6235 -1.5550 -1.5878
C -1.6222 -1.5492 -1.5777
C -1.6257 -1.5489 -1.5799
C -1.6176 -1.5458 -1.5697
C -1.6154 -1.5417 -1.5631
C -1.6201 -1.5404 -1.5636
C -1.6088 -1.5391 -1.5560
C -1.6063 -1.5350 -1.5509
C -1.6043 -1.5410 -1.5559
C -1.5993 -1.5391 -1.5503
C -1.6072 -1.5452 -1.5631
C -1.6048 -1.5468 -1.5633
C -1.6134 -1.5477 -1.5702
C -1.6068 -1.5641 -1.5848
C -1.6095 -1.5667 -1.5856
C -1.6019 -1.5635 -1.5844
C -1.5997 -1.5618 -1.5834
C -1.5983 -1.5659 -1.5861
C -1.5941 -1.5630 -1.5879
C -1.5976 -1.5663 -1.5860
C -1.6004 -1.5701 -1.5872
C -1.6008 -1.5727 -1.5880
C -1.6015 -1.5719 -1.5874
138
REAL frame=123
C -1.6126 -1.5771 -1.5859
C -1.6155 -1.5791 -1.5852
C -1.6133 -1.5724 -1.5862
C -1.6114 -1.5766 -1.5828
C -1.6093 -1.5805 -1.5874
C -1.6040 -1.5791 -1.5866
C -1.6098 -1.5849 -1.5895
C -1.6111 -1.5806 -1.5870
C -1.6157 -1.5841 -1.5848
C -1.6083 -1.5774 -1.5888
C -1.6046 -1.5746 -1.5891
C -1.6089 -1.5759 -1.5900
C -1.6107 -1.5735 -1.5872
C -1.6046 -1.5721 -1.5913
C -1.6021 -1.5652 -1.5894
C -1.6015 -1.5764 -1.5918
C -1.6071 -1.5701 -1.5959
C -1.6060 -1.5781 -1.5998
C -1.6022 -1.5855 -1.6000
C -1.6112 -1.5762 -1.6037
C -1.6128 -1.5828 -1.6062
C -1.6165 -1.5661 -1.6035
C -1.6234 -1.5639 -1.6070
C -1.6150 -1.5615 -1.6000
C -1.6167 -1.5581 -1.5994
C -1.6194 -1.5504 -1.5994
C -1.6108 -1.5603 -1.5960
C -1.6096 -1.5547 -1.5931
C -1.6117 -1.5803 -1.5920
C -1.6137 -1.5865 -1.5919
C -1.6102 -1.5781 -1.5955
C -1.6083 -1.5727 -1.5955
C -1.6114 -1.5832 -1.5991
C -1.6073 -1.5846 -1.6022
C -1.6153 -1.5909 -1.6006
C -1.6139 -1.5965 -1.6012
C -1.6150 -1.5959 -1.6029
C -1.6208 -1.5858 -1.5997
C -1.6182 -1.5799 -1.6003
C -1.6279 -1.5891 -1.5988
C -1.6134 -1.5802 -1.5971
C -1.6157 -1.5777 -1.5943
C -1.6136 -1.5813 -1.5980
C -1.6087 -1.5849 -1.6013
C -1.6085 -1.5914 -1.6046
C -1.6030 -1.5822 -1.5999
C -1.6094 -1.5850 -1.6013
C -1.6133 -1.5907 -1.6039
C -1.6031 -1.5846 -1.6019
C -1.6131 -1.5786 -1.5976
C -1.6178 -1.5794 -1.5971
C -1.6086 -1.5742 -1.5969
C -1.6170 -1.5784 -1.5958
C -1.6158 -1.5754 -1.5936
C -1.6228 -1.5798 -1.5937
C -1.6237 -1.5772 -1.5920
C -1.6262 -1.5839 -1.5945
C -1.6254 -1.5862 -1.5981
C -1.6326 -1.5846 -1.5946
C -1.6335 -1.5826 -1.5935
C -1.6336 -1.5906 -1.5962
C -1.6332 -1.5918 -1.5955
C -1.6373 -1.5902 -1.5966
C -1.6315 -1.5955 -1.5981
C -1.6275 -1.5964 -1.5988
C -1.6338 -1.5990 -1.6001
C -1.6297 -1.5932 -1.5977
C -1.6238 -1.5918 -1.5972
C -1.6350 -1.5907 -1.5979
C -1.6366 -1.5813 -1.5925
C -1.6417 -1.5788 -1.5908
C -1.6332 -1.5811 -1.5924
C -1.6289 -1.5830 -1.5946
C -1.6384 -1.5783 -1.5905
C -1.6424 -1.5744 -1.5884
C -1.6412 -1.5857 -1.5928
C -1.6433 -1.5846 -1.5912
C -1.6456 -1.5879 -1.5925
C -1.6426 -1.5835 -1.5893
C -1.6504 -1.5918 -1.5890
C -1.6441 -1.5887 -1.5990
C -1.6360 -1.5908 -1.5962
C -1.6329 -1.5935 -1.5977
C -1.6341 -1.5745 -1.5907
C -1.6355 -1.5780 -1.5929
C -1.6288 -1.5671 -1.5888
C -1.6281 -1.5644 -1.5876
C -1.6258 -1.5669 -1.5927
C -1.6262 -1.5696 -1.5947
C -1.6240 -1.5645 -1.5936
C -1.6235 -1.5666 -1.5915
C -1.6239 -1.5617 -1.5888
C -1.6212 -1.5716 -1.5921
C -1.6211 -1.5754 -1.5937
C -1.6203 -1.5702 -1.5901
C -1.6229 -1.5672 -1.5889
C -1.6207 -1.5760 -1.5906
C -1.6175 -1.5801 -1.5835
C -1.6272 -1.5635 -1.5925
C -1.6280 -1.5587 -1.6017
C -1.6269 -1.5610 -1.5859
C -1.6305 -1.5637 -1.5922
C -1.6214 -1.5870 -1.5994
C -1.6183 -1.5935 -1.6013
C -1.6152 -1.5666 -1.5886
C -1.6114 -1.5679 -1.5914
C -1.6159 -1.5645 -1.5850
C -1.6189 -1.5640 -1.5824
C -1.6104 -1.5610 -1.5836
C -1.6087 -1.5598 -1.5845
C -1.6117 -1.5552 -1.5803
C -1.6131 -1.5579 -1.5776
C -1.6084 -1.5511 -1.5814
C -1.6158 -1.5523 -1.5779
C -1.6215 -1.5526 -1.5819
C -1.6233 -1.5549 -1.5878
C -1.6222 -1.5491 -1.5777
C -1.6258 -1.5488 -1.5799
C -1.6176 -1.5457 -1.5697
C -1.6155 -1.5417 -1.5630
C -1.6197 -1.5405 -1.5642
C -1.6088 -1.5389 -1.5558
C -1.6061 -1.5351 -1.5506
C -1.6043 -1.5410 -1.5559
C -1.5992 -1.5395 -1.5505
C -1.6072 -1.5453 -1.5629
C -1.6047 -1.5469 -1.5629
C -1.6135 -1.5478 -1.5702
C -1.6069 -1.5642 -1.5848
C -1.6095 -1.5666 -1.5857
C -1.6019 -1.5635 -1.5842
C -1.5998 -1.5615 -1.5826
C -1.5983 -1.5658 -1.5861
C -1.5942 -1.5628 -1.5879
C -1.5978 -1.5660 -1.5859
C -1.6004 -1.5700 -1.5872
C -1.6008 -1.5727 -1.5881
C -1.6017 -1.5720 -1.5874
138
REAL frame=124
C -1.6126 -1.5771 -1.5858
C -1.6155 -1.5788 -1.5852
C -1.6132 -1.5724 -1.5863
C -1.6114 -1.5771 -1.5834
C -1.6093 -1.5807 -1.5875
C -1.6041 -1.5795 -1.5868
C -1.6101 -1.5849 -1.5888
C -1.6111 -1.5806 -1.5870
C -1.6156 -1.5841 -1.5849
C -1.6082 -1.5773 -1.5889
C -1.6045 -1.5743 -1.5889
C -1.6089 -1.5760 -1.5900
C -1.6107 -1.5731 -1.5877
C -1.6045 -1.5721 -1.5914
C -1.6019 -1.5655 -1.5896
C -1.6014 -1.5766 -1.5916
C -1.6072 -1.5701 -1.5959
C -1.6060 -1.5781 -1.5998
C -1.6024 -1.5855 -1.5999
C -1.6111 -1.5764 -1.6037
C -1.6126 -1.5828 -1.6062
C -1.6165 -1.5662 -1.6035
C -1.6233 -1.5638 -1.6070
C -1.6148 -1.5614 -1.6005
C -1.6167 -1.5581 -1.5995
C -1.6199 -1.5505 -1.5991
C -1.6107 -1.5601 -1.5960
C -1.6097 -1.5545 -1.5931
C -1.6116 -1.5801 -1.5920
C -1.6137 -1.5866 -1.5918
C -1.6103 -1.5782 -1.5956
C -1.6082 -1.5728 -1.5956
C -1.6115 -1.5832 -1.5990
C -1.6065 -1.5841 -1.6023
C -1.6151 -1.5908 -1.6006
C -1.6135 -1.5961 -1.6015
C -1.6149 -1.5957 -1.6026
C -1.6208 -1.5858 -1.5997
C -1.6182 -1.5800 -1.6003
C -1.6279 -1.5892 -1.5989
C -1.6136 -1.5801 -1.5971
C -1.6157 -1.5777 -1.5944
C -1.6136 -1.5811 -1.5980
C -1.6087 -1.5851 -1.6014
C -1.6085 -1.5915 -1.6052
C -1.6028 -1.5821 -1.5998
C -1.6093 -1.5850 -1.6013
C -1.6133 -1.5907 -1.6038
C -1.6032 -1.5846 -1.6021
C -1.6132 -1.5786 -1.5976
C -1.6178 -1.5794 -1.5971
C -1.6087 -1.5745 -1.5968
C -1.6170 -1.5783 -1.5958
C -1.6157 -1.5759 -1.5936
C -1.6229 -1.5800 -1.5938
C -1.6237 -1.5771 -1.5920
C -1.6262 -1.5840 -1.5944
C -1.6258 -1.5862 -1.5983
C -1.6326 -1.5846 -1.5945
C -1.6336 -1.5826 -1.5934
C -1.6337 -1.5905 -1.5961
C -1.6332 -1.5917 -1.5953
C -1.6372 -1.5900 -1.5963
C -1.6315 -1.5954 -1.5983
C -1.6277 -1.5965 -1.5982
C -1.6339 -1.5993 -1.5999
C -1.6300 -1.5930 -1.5976
C -1.6238 -1.5918 -1.5972
C -1.6350 -1.5907 -1.5979
C -1.6367 -1.5812 -1.5923
C -1.6417 -1.5789 -1.5908
C -1.6332 -1.5811 -1.5925
C -1.6286 -1.5832 -1.5940
C -1.6384 -1.5783 -1.5906
C -1.6430 -1.5744 -1.5884
C -1.6412 -1.5857 -1.5929
C -1.6431 -1.5841 -1.5913
C -1.6454 -1.5878 -1.5925
C -1.6428 -1.5834 -1.5893
C -1.6504 -1.5914 -1.5886
C -1.6452 -1.5881 -1.5991
C -1.6360 -1.5908 -1.5962
C -1.6330 -1.5937 -1.5976
C -1.6341 -1.5746 -1.5906
C -1.6355 -1.5781 -1.5930
C -1.6289 -1.5671 -1.5889
C -1.6274 -1.5640 -1.5873
C -1.6257 -1.5670 -1.5927
C -1.6263 -1.5693 -1.5950
C -1.6238 -1.5646 -1.5937
C -1.6236 -1.5668 -1.5915
C -1.6238 -1.5617 -1.5887
C -1.6212 -1.5716 -1.5922
C -1.6216 -1.5753 -1.5933
C -1.6202 -1.5703 -1.5901
C -1.6225 -1.5671 -1.5890
C -1.6207 -1.5758 -1.5906
C -1.6176 -1.5799 -1.5833
C -1.6271 -1.5635 -1.5925
C -1.6283 -1.5588 -1.6016
C -1.6267 -1.5608 -1.5860
C -1.6305 -1.5636 -1.5927
C -1.6214 -1.5869 -1.5993
C -1.6179 -1.5930 -1.6013
C -1.6153 -1.5667 -1.5887
C -1.6115 -1.5677 -1.5914
C -1.6159 -1.5646 -1.5850
C -1.6183 -1.5640 -1.5821
C -1.6103 -1.5610 -1.5837
C -1.6087 -1.5601 -1.5848
C -1.6118 -1.5551 -1.5804
C -1.6125 -1.5577 -1.5773
C -1.6086 -1.5515 -1.5808
C -1.6158 -1.5522 -1.5779
C -1.6215 -1.5526 -1.5818
C -1.6233 -1.5549 -1.5878
C -1.6221 -1.5489 -1.5777
C -1.6258 -1.5486 -1.5798
C -1.6176 -1.5457 -1.5699
C -1.6155 -1.5416 -1.5629
C -1.6192 -1.5404 -1.5645
C -1.6088 -1.5387 -1.5557
C -1.6061 -1.5351 -1.5503
C -1.6044 -1.5410 -1.5559
C -1.5991 -1.5398 -1.5507
C -1.6073 -1.5454 -1.5627
C -1.6046 -1.5469 -1.5625
C -1.6135 -1.5479 -1.5701
C -1.6070 -1.5642 -1.5849
C -1.6094 -1.5666 -1.5858
C -1.6018 -1.5635 -1.5839
C -1.5999 -1.5612 -1.5818
C -1.5984 -1.5656 -1.5861
C -1.5942 -1.5627 -1.5878
C -1.5980 -1.5655 -1.5857
C -1.6004 -1.5700 -1.5873
C -1.6007 -1.5726 -1.5882
C -1.6019 -1.5721 -1.5873
138
REAL frame=125
C -1.6127 -1.5771 -1.5857
C -1.6156 -1.5784 -1.5854
C -1.6132 -1.5725 -1.5862
C -1.6113 -1.5776 -1.5843
C -1.6093 -1.5809 -1.5876
C -1.6043 -1.5800 -1.5871
C -1.6103 -1.5850 -1.5882
C -1.6112 -1.5806 -1.5871
C -1.6156 -1.5841 -1.5850
C -1.6081 -1.5772 -1.5890
C -1.6044 -1.5741 -1.5887
C -1.6088 -1.5760 -1.5900
C -1.6107 -1.5728 -1.5880
C -1.6044 -1.5721 -1.5915
C -1.6017 -1.5658 -1.5897
C -1.6014 -1.5767 -1.5915
C -1.6072 -1.5700 -1.5959
C -1.6061 -1.5781 -1.5998
C -1.6026 -1.5856 -1.5997
C -1.6111 -1.5765 -1.6036
C -1.6122 -1.5827 -1.6063
C -1.6165 -1.5663 -1.6036
C -1.6233 -1.5638 -1.6069
C -1.6147 -1.5611 -1.6011
C -1.6167 -1.5582 -1.5995
C -1.6205 -1.5506 -1.5989
C -1.6107 -1.5600 -1.5959
C -1.6098 -1.5541 -1.5930
C -1.6116 -1.5802 -1.5921
C -1.6137 -1.5865 -1.5917
C -1.6104 -1.5782 -1.5956
C -1.6081 -1.5730 -1.5957
C -1.6115 -1.5831 -1.5990
C -1.6060 -1.5835 -1.6025
C -1.6150 -1.5907 -1.6006
C -1.6131 -1.5955 -1.6016
C -1.6147 -1.5955 -1.6020
C -1.6207 -1.5859 -1.5998
C -1.6182 -1.5800 -1.6003
C -1.6280 -1.5893 -1.5990
C -1.6137 -1.5802 -1.5970
C -1.6156 -1.5777 -1.5945
C -1.6137 -1.5810 -1.5980
C -1.6086 -1.5852 -1.6013
C -1.6086 -1.5915 -1.6054
C -1.6026 -1.5821 -1.6000
C -1.6093 -1.5851 -1.6014
C -1.6133 -1.5905 -1.6036
C -1.6034 -1.5846 -1.6022
C -1.6133 -1.5787 -1.5977
C -1.6177 -1.5793 -1.5971
C -1.6088 -1.5746 -1.5969
C -1.6169 -1.5782 -1.5959
C -1.6157 -1.5759 -1.5936
C -1.6229 -1.5801 -1.5939
C -1.6237 -1.5771 -1.5920
C -1.6263 -1.5840 -1.5943
C -1.6262 -1.5861 -1.5984
C -1.6326 -1.5846 -1.5943
C -1.6338 -1.5827 -1.5935
C -1.6339 -1.5905 -1.5960
C -1.6334 -1.5915 -1.5950
C -1.6372 -1.5899 -1.5959
C -1.6315 -1.5953 -1.5984
C -1.6280 -1.5965 -1.5976
C -1.6339 -1.5995 -1.5996
C -1.6302 -1.5929 -1.5975
C -1.6238 -1.5919 -1.5971
C -1.6350 -1.5906 -1.5978
C -1.6367 -1.5813 -1.5921
C -1.6417 -1.5790 -1.5907
C -1.6332 -1.5811 -1.5925
C -1.6283 -1.5834 -1.5934
C -1.6385 -1.5784 -1.5908
C -1.6436 -1.5745 -1.5885
C -1.6412 -1.5857 -1.5930
C -1.6431 -1.5838 -1.5914
C -1.6453 -1.5877 -1.5926
C -1.6430 -1.5833 -1.5892
C -1.6503 -1.5910 -1.5882
C -1.6464 -1.5878 -1.5992
C -1.6360 -1.5908 -1.5962
C -1.6330 -1.5936 -1.5976
C -1.6341 -1.5747 -1.5906
C -1.6355 -1.5782 -1.5930
C -1.6289 -1.5671 -1.5890
C -1.6270 -1.5635 -1.5869
C -1.6256 -1.5671 -1.5927
C -1.6263 -1.5690 -1.5952
C -1.6238 -1.5647 -1.5939
C -1.6236 -1.5669 -1.5914
C -1.6238 -1.5617 -1.5887
C -1.6212 -1.5716 -1.5922
C -1.6220 -1.5754 -1.5930
C -1.6200 -1.5703 -1.5901
C -1.6221 -1.5671 -1.5890
C -1.6208 -1.5757 -1.5906
C -1.6175 -1.5796 -1.5828
C -1.6270 -1.5635 -1.5926
C -1.6285 -1.5588 -1.6014
C -1.6267 -1.5606 -1.5862
C -1.6306 -1.5634 -1.5930
C -1.6215 -1.5869 -1.5993
C -1.6175 -1.5926 -1.6011
C -1.6154 -1.5668 -1.5888
C -1.6115 -1.5675 -1.5915
C -1.6158 -1.5647 -1.5849
C -1.6177 -1.5640 -1.5819
C -1.6104 -1.5610 -1.5839
C -1.6086 -1.5604 -1.5849
C -1.6118 -1.5551 -1.5806
C -1.6122 -1.5576 -1.5771
C -1.6087 -1.5515 -1.5805
C -1.6158 -1.5522 -1.5779
C -1.6215 -1.5526 -1.5819
C -1.6233 -1.5551 -1.5878
C -1.6220 -1.5488 -1.5776
C -1.6258 -1.5485 -1.5797
C -1.6175 -1.5457 -1.5700
C -1.6156 -1.5416 -1.5628
C -1.6186 -1.5402 -1.5642
C -1.6088 -1.5386 -1.5556
C -1.6061 -1.5352 -1.5499
C -1.6045 -1.5410 -1.5559
C -1.5989 -1.5399 -1.5509
C -1.6074 -1.5454 -1.5626
C -1.6044 -1.5469 -1.5621
C -1.6136 -1.5480 -1.5700
C -1.6072 -1.5641 -1.5849
C -1.6094 -1.5665 -1.5859
C -1.6018 -1.5636 -1.5837
C -1.5999 -1.5611 -1.5812
C -1.5984 -1.5654 -1.5862
C -1.5942 -1.5628 -1.5877
C -1.5982 -1.5651 -1.5856
C -1.6004 -1.5700 -1.5873
C -1.6006 -1.5726 -1.5883
C -1.6021 -1.5722 -1.5872
138
REAL frame=126
C -1.6127 -1.5771 -1.5856
C -1.6156 -1.5779 -1.5856
C -1.6132 -1.5726 -1.5861
C -1.6111 -1.5780 -1.5852
C -1.6094 -1.5811 -1.5877
C -1.6046 -1.5806 -1.5874
C -1.6105 -1.5849 -1.5879
C -1.6113 -1.5806 -1.5871
C -1.6156 -1.5840 -1.5851
C -1.6080 -1.5772 -1.5891
C -1.6042 -1.5739 -1.5887
C -1.6088 -1.5760 -1.5899
C -1.6106 -1.5726 -1.5882
C -1.6042 -1.5720 -1.5916
C -1.6017 -1.5660 -1.5897
C -1.6014 -1.5767 -1.5916
C -1.6071 -1.5699 -1.5958
C -1.6062 -1.5781 -1.5998
C -1.6028 -1.5857 -1.5995
C -1.6110 -1.5767 -1.6036
C -1.6117 -1.5825 -1.6064
C -1.6165 -1.5663 -1.6036
C -1.6232 -1.5637 -1.6068
C -1.6147 -1.5607 -1.6019
C -1.6167 -1.5582 -1.5996
C -1.6211 -1.5506 -1.5988
C -1.6108 -1.5599 -1.5959
C -1.6101 -1.5537 -1.5929
C -1.6116 -1.5803 -1.5922
C -1.6137 -1.5865 -1.5917
C -1.6105 -1.5783 -1.5956
C -1.6080 -1.5731 -1.5958
C -1.6114 -1.5830 -1.5990
C -1.6058 -1.5829 -1.6027
C -1.6149 -1.5906 -1.6007
C -1.6128 -1.5948 -1.6016
C -1.6145 -1.5953 -1.6015
C -1.6207 -1.5860 -1.5999
C -1.6183 -1.5800 -1.6002
C -1.6281 -1.5894 -1.5991
C -1.6139 -1.5802 -1.5970
C -1.6156 -1.5777 -1.5945
C -1.6138 -1.5809 -1.5980
C -1.6085 -1.5854 -1.6013
C -1.6088 -1.5912 -1.6053
C -1.6024 -1.5820 -1.6004
C -1.6093 -1.5852 -1.6014
C -1.6133 -1.5901 -1.6034
C -1.6036 -1.5847 -1.6024
C -1.6135 -1.5787 -1.5977
C -1.6175 -1.5791 -1.5971
C -1.6089 -1.5745 -1.5969
C -1.6168 -1.5782 -1.5960
C -1.6155 -1.5753 -1.5938
C -1.6230 -1.5801 -1.5940
C -1.6238 -1.5770 -1.5919
C -1.6263 -1.5840 -1.5943
C -1.6265 -1.5861 -1.5983
C -1.6325 -1.5846 -1.5942
C -1.6341 -1.5828 -1.5936
C -1.6341 -1.5905 -1.5959
C -1.6336 -1.5914 -1.5948
C -1.6373 -1.5899 -1.5956
C -1.6316 -1.5952 -1.5985
C -1.6281 -1.5965 -1.5972
C -1.6340 -1.5996 -1.5994
C -1.6304 -1.5928 -1.5976
C -1.6238 -1.5919 -1.5970
C -1.6351 -1.5906 -1.5978
C -1.6366 -1.5813 -1.5921
C -1.6418 -1.5790 -1.5906
C -1.6333 -1.5811 -1.5925
C -1.6280 -1.5835 -1.5929
C -1.6384 -1.5785 -1.5909
C -1.6439 -1.5747 -1.5887
C -1.6412 -1.5856 -1.5931
C -1.6433 -1.5836 -1.5915
C -1.6452 -1.5875 -1.5926
C -1.6433 -1.5833 -1.5890
C -1.6502 -1.5907 -1.5877
C -1.6474 -1.5879 -1.5993
C -1.6361 -1.5909 -1.5962
C -1.6330 -1.5933 -1.5977
C -1.6341 -1.5746 -1.5906
C -1.6355 -1.5783 -1.5930
C -1.6288 -1.5672 -1.5890
C -1.6268 -1.5631 -1.5864
C -1.6256 -1.5671 -1.5926
C -1.6262 -1.5688 -1.5953
C -1.6239 -1.5646 -1.5942
C -1.6236 -1.5669 -1.5912
C -1.6238 -1.5616 -1.5888
C -1.6213 -1.5716 -1.5922
C -1.6222 -1.5755 -1.5928
C -1.6199 -1.5702 -1.5901
C -1.6217 -1.5671 -1.5889
C -1.6210 -1.5755 -1.5907
C -1.6174 -1.5791 -1.5823
C -1.6269 -1.5636 -1.5928
C -1.6285 -1.5587 -1.6011
C -1.6267 -1.5604 -1.5863
C -1.6307 -1.5632 -1.5931
C -1.6215 -1.5868 -1.5992
C -1.6170 -1.5922 -1.6007
C -1.6155 -1.5669 -1.5889
C -1.6116 -1.5673 -1.5915
C -1.6157 -1.5647 -1.5848
C -1.6174 -1.5639 -1.5818
C -1.6105 -1.5611 -1.5841
C -1.6085 -1.5607 -1.5850
C -1.6118 -1.5551 -1.5806
C -1.6123 -1.5576 -1.5773
C -1.6087 -1.5512 -1.5805
C -1.6158 -1.5521 -1.5779
C -1.6215 -1.5526 -1.5820
C -1.6235 -1.5553 -1.5879
C -1.6220 -1.5486 -1.5775
C -1.6258 -1.5483 -1.5795
C -1.6175 -1.5458 -1.5702
C -1.6157 -1.5415 -1.5627
C -1.6179 -1.5399 -1.5636
C -1.6088 -1.5385 -1.5554
C -1.6063 -1.5352 -1.5497
C -1.6046 -1.5409 -1.5559
C -1.5988 -1.5398 -1.5509
C -1.6075 -1.5455 -1.5626
C -1.6041 -1.5469 -1.5618
C -1.6136 -1.5481 -1.5699
C -1.6073 -1.5640 -1.5849
C -1.6094 -1.5665 -1.5860
C -1.6017 -1.5636 -1.5835
C -1.5998 -1.5612 -1.5806
C -1.5985 -1.5652 -1.5862
C -1.5943 -1.5630 -1.5876
C -1.5984 -1.5648 -1.5857
C -1.6004 -1.5701 -1.5874
C -1.6005 -1.5725 -1.5884
C -1.6023 -1.5722 -1.5872
138
REAL frame=127
C -1.6127 -1.5771 -1.5855
C -1.6156 -1.5776 -1.5858
C -1.6131 -1.5728 -1.5858
C -1.6110 -1.5782 -1.5858
C -1.6094 -1.5813 -1.5877
C -1.6050 -1.5811 -1.5878
C -1.6107 -1.5849 -1.5879
C -1.6113 -1.5807 -1.5871
C -1.6157 -1.5839 -1.5852
C -1.6079 -1.5771 -1.5891
C -1.6040 -1.5738 -1.5887
C -1.6088 -1.5759 -1.5899
C -1.6104 -1.5726 -1.5881
C -1.6041 -1.5720 -1.5917
C -1.6018 -1.5660 -1.5895
C -1.6015 -1.5767 -1.5918
C -1.6070 -1.5699 -1.5958
C -1.6063 -1.5782 -1.5998
C -1.6031 -1.5858 -1.5993
C -1.6109 -1.5767 -1.6036
C -1.6111 -1.5824 -1.6066
C -1.6166 -1.5664 -1.6037
C -1.6230 -1.5637 -1.6067
C -1.6149 -1.5603 -1.6026
C -1.6166 -1.5582 -1.5997
C -1.6218 -1.5505 -1.5989
C -1.6108 -1.5600 -1.5958
C -1.6104 -1.5533 -1.5929
C -1.6116 -1.5805 -1.5923
C -1.6137 -1.5864 -1.5916
C -1.6106 -1.5783 -1.5956
C -1.6080 -1.5731 -1.5959
C -1.6113 -1.5829 -1.5991
C -1.6058 -1.5824 -1.6031
C -1.6148 -1.5905 -1.6008
C -1.6126 -1.5942 -1.6016
C -1.6144 -1.5951 -1.6011
C -1.6206 -1.5860 -1.6000
C -1.6184 -1.5799 -1.6001
C -1.6282 -1.5894 -1.5992
C -1.6140 -1.5803 -1.5970
C -1.6156 -1.5777 -1.5946
C -1.6139 -1.5810 -1.5981
C -1.6084 -1.5855 -1.6013
C -1.6090 -1.5909 -1.6049
C -1.6023 -1.5820 -1.6008
C -1.6093 -1.5853 -1.6015
C -1.6132 -1.5896 -1.6032
C -1.6037 -1.5849 -1.6026
C -1.6135 -1.5787 -1.5977
C -1.6173 -1.5789 -1.5971
C -1.6090 -1.5743 -1.5971
C -1.6166 -1.5782 -1.5961
C -1.6155 -1.5745 -1.5941
C -1.6230 -1.5800 -1.5940
C -1.6239 -1.5771 -1.5919
C -1.6263 -1.5840 -1.5943
C -1.6268 -1.5860 -1.5982
C -1.6324 -1.5846 -1.5940
C -1.6343 -1.5829 -1.5938
C -1.6343 -1.5905 -1.5959
C -1.6339 -1.5914 -1.5947
C -1.6376 -1.5900 -1.5954
C -1.6316 -1.5951 -1.5984
C -1.6281 -1.5964 -1.5972
C -1.6340 -1.5995 -1.5993
C -1.6304 -1.5928 -1.5977
C -1.6239 -1.5919 -1.5968
C -1.6351 -1.5904 -1.5977
C -1.6366 -1.5815 -1.5921
C -1.6418 -1.5790 -1.5905
C -1.6334 -1.5811 -1.5925
C -1.6278 -1.5834 -1.5927
C -1.6384 -1.5786 -1.5911
C -1.6440 -1.5748 -1.5889
C -1.6412 -1.5855 -1.5932
C -1.6437 -1.5837 -1.5916
C -1.6451 -1.5873 -1.5926
C -1.6434 -1.5832 -1.5888
C -1.6500 -1.5906 -1.5872
C -1.6481 -1.5882 -1.5994
C -1.6361 -1.5910 -1.5961
C -1.6330 -1.5929 -1.5977
C -1.6341 -1.5745 -1.5907
C -1.6355 -1.5785 -1.5930
C -1.6288 -1.5672 -1.5890
C -1.6270 -1.5626 -1.5858
C -1.6256 -1.5672 -1.5925
C -1.6261 -1.5689 -1.5952
C -1.6240 -1.5645 -1.5946
C -1.6235 -1.5668 -1.5910
C -1.6238 -1.5616 -1.5888
C -1.6214 -1.5717 -1.5922
C -1.6224 -1.5755 -1.5928
C -1.6199 -1.5702 -1.5902
C -1.6214 -1.5672 -1.5888
C -1.6211 -1.5754 -1.5908
C -1.6172 -1.5786 -1.5817
C -1.6268 -1.5637 -1.5929
C -1.6285 -1.5586 -1.6008
C -1.6268 -1.5602 -1.5864
C -1.6308 -1.5631 -1.5930
C -1.6215 -1.5868 -1.5991
C -1.6165 -1.5919 -1.6002
C -1.6156 -1.5671 -1.5890
C -1.6116 -1.5671 -1.5916
C -1.6156 -1.5648 -1.5847
C -1.6174 -1.5638 -1.5819
C -1.6106 -1.5612 -1.5842
C -1.6084 -1.5608 -1.5850
C -1.6118 -1.5552 -1.5807
C -1.6127 -1.5578 -1.5776
C -1.6085 -1.5507 -1.5807
C -1.6158 -1.5521 -1.5778
C -1.6215 -1.5526 -1.5820
C -1.6238 -1.5556 -1.5879
C -1.6220 -1.5485 -1.5774
C -1.6258 -1.5480 -1.5792
C -1.6174 -1.5459 -1.5702
C -1.6158 -1.5413 -1.5627
C -1.6173 -1.5397 -1.5627
C -1.6088 -1.5385 -1.5553
C -1.6064 -1.5351 -1.5496
C -1.6047 -1.5408 -1.5559
C -1.5988 -1.5394 -1.5508
C -1.6076 -1.5456 -1.5626
C -1.6039 -1.5469 -1.5616
C -1.6136 -1.5481 -1.5698
C -1.6074 -1.5639 -1.5849
C -1.6094 -1.5665 -1.5861
C -1.6017 -1.5635 -1.5833
C -1.5995 -1.5614 -1.5802
C -1.5985 -1.5650 -1.5863
C -1.5943 -1.5633 -1.5875
C -1.5986 -1.5646 -1.5858
C -1.6005 -1.5703 -1.5874
C -1.6005 -1.5725 -1.5885
C -1.6024 -1.5722 -1.5872
138
REAL frame=128
C -1.6127 -1.5771 -1.5856
C -1.6156 -1.5775 -1.5859
C -1.6130 -1.5730 -1.5855
C -1.6110 -1.5783 -1.5860
C -1.6095 -1.5815 -1.5876
C -1.6053 -1.5816 -1.5881
C -1.6109 -1.5848 -1.5881
C -1.6113 -1.5808 -1.5871
C -1.6157 -1.5838 -1.5853
C -1.6078 -1.5771 -1.5891
C -1.6038 -1.5736 -1.5888
C -1.6088 -1.5757 -1.5900
C -1.6103 -1.5727 -1.5878
C -1.6040 -1.5720 -1.5918
C -1.6019 -1.5660 -1.5894
C -1.6015 -1.5765 -1.5921
C -1.6069 -1.5699 -1.5958
C -1.6064 -1.5783 -1.5997
C -1.6033 -1.5859 -1.5991
C -1.6109 -1.5766 -1.6036
C -1.6105 -1.5824 -1.6067
C -1.6166 -1.5664 -1.6038
C -1.6229 -1.5638 -1.6066
C -1.6151 -1.5600 -1.6032
C -1.6165 -1.5582 -1.5998
C -1.6224 -1.5504 -1.5992
C -1.6108 -1.5600 -1.5958
C -1.6109 -1.5530 -1.5928
C -1.6115 -1.5807 -1.5924
C -1.6137 -1.5863 -1.5915
C -1.6106 -1.5784 -1.5956
C -1.6079 -1.5732 -1.5960
C -1.6111 -1.5828 -1.5992
C -1.6062 -1.5822 -1.6034
C -1.6147 -1.5904 -1.6009
C -1.6126 -1.5938 -1.6014
C -1.6143 -1.5949 -1.6010
C -1.6206 -1.5861 -1.6001
C -1.6184 -1.5799 -1.6000
C -1.6283 -1.5895 -1.5992
C -1.6142 -1.5803 -1.5970
C -1.6156 -1.5777 -1.5947
C -1.6141 -1.5811 -1.5981
C -1.6082 -1.5855 -1.6013
C -1.6091 -1.5906 -1.6041
C -1.6023 -1.5822 -1.6013
C -1.6093 -1.5854 -1.6016
C -1.6132 -1.5892 -1.6031
C -1.6039 -1.5851 -1.6027
C -1.6136 -1.5787 -1.5977
C -1.6170 -1.5788 -1.5971
C -1.6091 -1.5740 -1.5973
C -1.6164 -1.5782 -1.5962
C -1.6154 -1.5735 -1.5945
C -1.6230 -1.5799 -1.5941
C -1.6240 -1.5771 -1.5918
C -1.6264 -1.5839 -1.5943
C -1.6268 -1.5859 -1.5980
C -1.6324 -1.5846 -1.5938
C -1.6344 -1.5830 -1.5939
C -1.6345 -1.5905 -1.5958
C -1.6342 -1.5914 -1.5947
C -1.6380 -1.5901 -1.5954
C -1.6316 -1.5951 -1.5983
C -1.6279 -1.5962 -1.5975
C -1.6340 -1.5992 -1.5995
C -1.6304 -1.5928 -1.5980
C -1.6241 -1.5919 -1.5966
C -1.6352 -1.5903 -1.5976
C -1.6364 -1.5816 -1.5922
C -1.6419 -1.5790 -1.5904
C -1.6335 -1.5811 -1.5924
C -1.6276 -1.5832 -1.5930
C -1.6383 -1.5787 -1.5913
C -1.6438 -1.5749 -1.5891
C -1.6412 -1.5855 -1.5933
C -1.6441 -1.5839 -1.5917
C -1.6451 -1.5871 -1.5926
C -1.6433 -1.5832 -1.5886
C -1.6497 -1.5908 -1.5867
C -1.6483 -1.5888 -1.5996
C -1.6362 -1.5910 -1.5961
C -1.6329 -1.5925 -1.5977
C -1.6341 -1.5744 -1.5907
C -1.6354 -1.5786 -1.5930
C -1.6287 -1.5673 -1.5890
C -1.6273 -1.5623 -1.5852
C -1.6256 -1.5673 -1.5925
C -1.6260 -1.5692 -1.5950
C -1.6241 -1.5644 -1.5948
C -1.6235 -1.5667 -1.5909
C -1.6238 -1.5616 -1.5889
C -1.6215 -1.5718 -1.5922
C -1.6224 -1.5755 -1.5929
C -1.6199 -1.5702 -1.5902
C -1.6211 -1.5674 -1.5887
C -1.6212 -1.5752 -1.5908
C -1.6171 -1.5781 -1.5813
C -1.6268 -1.5637 -1.5930
C -1.6282 -1.5584 -1.6006
C -1.6268 -1.5602 -1.5865
C -1.6308 -1.5630 -1.5928
C -1.6215 -1.5867 -1.5991
C -1.6163 -1.5916 -1.5999
C -1.6157 -1.5672 -1.5890
C -1.6116 -1.5670 -1.5917
C -1.6154 -1.5649 -1.5846
C -1.6175 -1.5638 -1.5820
C -1.6108 -1.5613 -1.5844
C -1.6084 -1.5608 -1.5849
C -1.6118 -1.5552 -1.5807
C -1.6134 -1.5581 -1.5782
C -1.6083 -1.5501 -1.5813
C -1.6158 -1.5520 -1.5778
C -1.6214 -1.5526 -1.5821
C -1.6241 -1.5559 -1.5880
C -1.6220 -1.5484 -1.5774
C -1.6257 -1.5478 -1.5789
C -1.6174 -1.5459 -1.5701
C -1.6158 -1.5412 -1.5627
C -1.6169 -1.5395 -1.5619
C -1.6088 -1.5385 -1.5552
C -1.6066 -1.5351 -1.5496
C -1.6048 -1.5407 -1.5558
C -1.5988 -1.5390 -1.5506
C -1.6077 -1.5456 -1.5626
C -1.6037 -1.5469 -1.5617
C -1.6136 -1.5481 -1.5698
C -1.6074 -1.5638 -1.5849
C -1.6095 -1.5665 -1.5862
C -1.6017 -1.5634 -1.5831
C -1.5992 -1.5618 -1.5799
C -1.5985 -1.5648 -1.5863
C -1.5943 -1.5635 -1.5873
C -1.5989 -1.5645 -1.5859
C -1.6005 -1.5704 -1.5875
C -1.6004 -1.5724 -1.5885
C -1.6025 -1.5722 -1.5872
138
REAL frame=129
C -1.6127 -1.5772 -1.5857
C -1.6155 -1.5777 -1.5859
C -1.6128 -1.5733 -1.5852
C -1.6112 -1.5782 -1.5856
C -1.6096 -1.5816 -1.5875
C -1.6057 -1.5819 -1.5883
C -1.6110 -1.5847 -1.5886
C -1.6113 -1.5810 -1.5872
C -1.6157 -1.5837 -1.5854
C -1.6077 -1.5771 -1.5890
C -1.6037 -1.5735 -1.5890
C -1.6087 -1.5754 -1.5900
C -1.6102 -1.5728 -1.5874
C -1.6039 -1.5719 -1.5919
C -1.6020 -1.5658 -1.5893
C -1.6015 -1.5762 -1.5926
C -1.6068 -1.5699 -1.5957
C -1.6065 -1.5784 -1.5996
C -1.6035 -1.5860 -1.5991
C -1.6109 -1.5765 -1.6037
C -1.6100 -1.5825 -1.6069
C -1.6167 -1.5664 -1.6038
C -1.6228 -1.5638 -1.6066
C -1.6152 -1.5599 -1.6035
C -1.6165 -1.5582 -1.5999
C -1.6229 -1.5503 -1.5996
C -1.6109 -1.5601 -1.5957
C -1.6114 -1.5529 -1.5927
C -1.6114 -1.5808 -1.5925
C -1.6137 -1.5862 -1.5914
C -1.6107 -1.5785 -1.5955
C -1.6079 -1.5732 -1.5961
C -1.6110 -1.5827 -1.5993
C -1.6066 -1.5823 -1.6035
C -1.6146 -1.5903 -1.6010
C -1.6127 -1.5937 -1.6013
C -1.6143 -1.5949 -1.6013
C -1.6206 -1.5861 -1.6001
C -1.6185 -1.5799 -1.5999
C -1.6283 -1.5895 -1.5993
C -1.6143 -1.5803 -1.5970
C -1.6156 -1.5777 -1.5947
C -1.6142 -1.5813 -1.5981
C -1.6081 -1.5855 -1.6012
C -1.6091 -1.5902 -1.6033
C -1.6023 -1.5824 -1.6016
C -1.6093 -1.5856 -1.6017
C -1.6132 -1.5890 -1.6029
C -1.6041 -1.5853 -1.6029
C -1.6136 -1.5787 -1.5978
C -1.6169 -1.5787 -1.5971
C -1.6091 -1.5736 -1.5974
C -1.6163 -1.5782 -1.5962
C -1.6155 -1.5726 -1.5950
C -1.6231 -1.5797 -1.5941
C -1.6242 -1.5772 -1.5916
C -1.6264 -1.5838 -1.5944
C -1.6266 -1.5859 -1.5978
C -1.6325 -1.5846 -1.5937
C -1.6344 -1.5831 -1.5939
C -1.6346 -1.5904 -1.5956
C -1.6346 -1.5915 -1.5949
C -1.6384 -1.5903 -1.5955
C -1.6317 -1.5950 -1.5982
C -1.6277 -1.5960 -1.5980
C -1.6340 -1.5989 -1.5998
C -1.6304 -1.5928 -1.5982
C -1.6242 -1.5919 -1.5964
C -1.6353 -1.5902 -1.5975
C -1.6363 -1.5817 -1.5923
C -1.6419 -1.5789 -1.5903
C -1.6336 -1.5812 -1.5922
C -1.6275 -1.5830 -1.5935
C -1.6382 -1.5788 -1.5915
C -1.6433 -1.5749 -1.5893
C -1.6412 -1.5854 -1.5934
C -1.6444 -1.5842 -1.5918
C -1.6452 -1.5869 -1.5926
C -1.6431 -1.5830 -1.5885
C -1.6494 -1.5910 -1.5862
C -1.6482 -1.5895 -1.5998
C -1.6363 -1.5910 -1.5961
C -1.6329 -1.5923 -1.5977
C -1.6340 -1.5744 -1.5907
C -1.6354 -1.5787 -1.5930
C -1.6286 -1.5674 -1.5889
C -1.6276 -1.5621 -1.5847
C -1.6257 -1.5673 -1.5924
C -1.6258 -1.5698 -1.5946
C -1.6243 -1.5644 -1.5949
C -1.6234 -1.5666 -1.5908
C -1.6238 -1.5616 -1.5890
C -1.6216 -1.5718 -1.5922
C -1.6223 -1.5755 -1.5931
C -1.6200 -1.5701 -1.5902
C -1.6210 -1.5676 -1.5886
C -1.6212 -1.5750 -1.5908
C -1.6172 -1.5778 -1.5810
C -1.6268 -1.5637 -1.5931
C -1.6279 -1.5582 -1.6007
C -1.6268 -1.5603 -1.5866
C -1.6307 -1.5630 -1.5924
C -1.6215 -1.5866 -1.5990
C -1.6162 -1.5914 -1.5998
C -1.6157 -1.5674 -1.5889
C -1.6116 -1.5669 -1.5919
C -1.6153 -1.5649 -1.5847
C -1.6177 -1.5638 -1.5822
C -1.6108 -1.5614 -1.5845
C -1.6085 -1.5606 -1.5849
C -1.6118 -1.5553 -1.5807
C -1.6140 -1.5584 -1.5789
C -1.6082 -1.5495 -1.5820
C -1.6158 -1.5521 -1.5778
C -1.6214 -1.5525 -1.5822
C -1.6243 -1.5560 -1.5880
C -1.6219 -1.5483 -1.5773
C -1.6256 -1.5476 -1.5786
C -1.6173 -1.5459 -1.5700
C -1.6158 -1.5411 -1.5627
C -1.6167 -1.5394 -1.5614
C -1.6088 -1.5386 -1.5553
C -1.6067 -1.5350 -1.5497
C -1.6049 -1.5406 -1.5558
C -1.5988 -1.5385 -1.5504
C -1.6078 -1.5457 -1.5626
C -1.6036 -1.5469 -1.5620
C -1.6136 -1.5481 -1.5697
C -1.6073 -1.5637 -1.5849
C -1.6096 -1.5665 -1.5863
C -1.6017 -1.5632 -1.5829
C -1.5989 -1.5621 -1.5796
C -1.5986 -1.5647 -1.5864
C -1.5944 -1.5636 -1.5871
C -1.5990 -1.5645 -1.5861
C -1.6007 -1.5705 -1.5876
C -1.6004 -1.5725 -1.5885
C -1.6026 -1.5721 -1.5872
138
REAL frame=130
C -1.6127 -1.5772 -1.5858
C -1.6155 -1.5780 -1.5858
C -1.6126 -1.5736 -1.5851
C -1.6115 -1.5780 -1.5848
C -1.6097 -1.5816 -1.5875
C -1.6060 -1.5822 -1.5882
C -1.6111 -1.5846 -1.5891
C -1.6112 -1.5811 -1.5873
C -1.6158 -1.5836 -1.5854
C -1.6077 -1.5771 -1.5889
C -1.6036 -1.5735 -1.5891
C -1.6086 -1.5752 -1.5901
C -1.6102 -1.5730 -1.5871
C -1.6039 -1.5719 -1.5919
C -1.6021 -1.5656 -1.5893
C -1.6014 -1.5759 -1.5930
C -1.6067 -1.5699 -1.5957
C -1.6066 -1.5785 -1.5995
C -1.6037 -1.5860 -1.5991
C -1.6108 -1.5764 -1.6039
C -1.6096 -1.5826 -1.6070
C -1.6167 -1.5664 -1.6038
C -1.6228 -1.5638 -1.6066
C -1.6151 -1.5599 -1.6036
C -1.6165 -1.5582 -1.5999
C -1.6231 -1.5502 -1.6000
C -1.6110 -1.5601 -1.5957
C -1.6120 -1.5531 -1.5925
C -1.6113 -1.5808 -1.5926
C -1.6137 -1.5862 -1.5914
C -1.6106 -1.5786 -1.5954
C -1.6078 -1.5733 -1.5961
C -1.6108 -1.5827 -1.5994
C -1.6071 -1.5827 -1.6035
C -1.6144 -1.5902 -1.6011
C -1.6130 -1.5938 -1.6012
C -1.6143 -1.5949 -1.6019
C -1.6206 -1.5861 -1.6001
C -1.6186 -1.5798 -1.5999
C -1.6283 -1.5896 -1.5993
C -1.6144 -1.5803 -1.5970
C -1.6156 -1.5778 -1.5948
C -1.6143 -1.5815 -1.5981
C -1.6079 -1.5854 -1.6013
C -1.6090 -1.5900 -1.6026
C -1.6024 -1.5827 -1.6018
C -1.6094 -1.5857 -1.6017
C -1.6132 -1.5891 -1.6028
C -1.6044 -1.5855 -1.6030
C -1.6135 -1.5787 -1.5978
C -1.6170 -1.5787 -1.5971
C -1.6091 -1.5734 -1.5976
C -1.6162 -1.5781 -1.5963
C -1.6155 -1.5720 -1.5954
C -1.6231 -1.5797 -1.5941
C -1.6243 -1.5772 -1.5915
C -1.6264 -1.5837 -1.5945
C -1.6262 -1.5858 -1.5976
C -1.6325 -1.5846 -1.5937
C -1.6343 -1.5831 -1.5937
C -1.6347 -1.5904 -1.5955
C -1.6349 -1.5915 -1.5951
C -1.6388 -1.5905 -1.5958
C -1.6317 -1.5950 -1.5980
C -1.6275 -1.5958 -1.5986
C -1.6340 -1.5987 -1.6001
C -1.6304 -1.5927 -1.5983
C -1.6243 -1.5919 -1.5962
C -1.6353 -1.5901 -1.5974
C -1.6362 -1.5817 -1.5923
C -1.6420 -1.5789 -1.5902
C -1.6337 -1.5814 -1.5922
C -1.6275 -1.5829 -1.5939
C -1.6381 -1.5789 -1.5915
C -1.6426 -1.5749 -1.5896
C -1.6412 -1.5854 -1.5935
C -1.6446 -1.5845 -1.5919
C -1.6453 -1.5868 -1.5925
C -1.6428 -1.5827 -1.5887
C -1.6491 -1.5913 -1.5857
C -1.6479 -1.5903 -1.5999
C -1.6363 -1.5910 -1.5961
C -1.6329 -1.5923 -1.5976
C -1.6340 -1.5744 -1.5907
C -1.6353 -1.5788 -1.5931
C -1.6286 -1.5675 -1.5888
C -1.6277 -1.5621 -1.5844
C -1.6257 -1.5673 -1.5923
C -1.6258 -1.5704 -1.5941
C -1.6243 -1.5644 -1.5949
C -1.6235 -1.5666 -1.5908
C -1.6237 -1.5616 -1.5890
C -1.6216 -1.5718 -1.5921
C -1.6221 -1.5754 -1.5933
C -1.6201 -1.5701 -1.5903
C -1.6211 -1.5677 -1.5885
C -1.6212 -1.5749 -1.5908
C -1.6173 -1.5777 -1.5810
C -1.6269 -1.5636 -1.5932
C -1.6275 -1.5580 -1.6009
C -1.6266 -1.5605 -1.5867
C -1.6306 -1.5630 -1.5921
C -1.6215 -1.5865 -1.5989
C -1.6162 -1.5914 -1.5999
C -1.6156 -1.5676 -1.5887
C -1.6116 -1.5668 -1.5921
C -1.6153 -1.5649 -1.5847
C -1.6179 -1.5639 -1.5822
C -1.6109 -1.5614 -1.5845
C -1.6087 -1.5604 -1.5850
C -1.6119 -1.5554 -1.5807
C -1.6145 -1.5586 -1.5795
C -1.6081 -1.5491 -1.5827
C -1.6158 -1.5521 -1.5778
C -1.6213 -1.5524 -1.5822
C -1.6246 -1.5559 -1.5880
C -1.6219 -1.5483 -1.5773
C -1.6255 -1.5475 -1.5783
C -1.6173 -1.5458 -1.5697
C -1.6157 -1.5411 -1.5626
C -1.6168 -1.5394 -1.5613
C -1.6088 -1.5386 -1.5554
C -1.6067 -1.5350 -1.5498
C -1.6050 -1.5406 -1.5557
C -1.5990 -1.5381 -1.5502
C -1.6079 -1.5456 -1.5625
C -1.6037 -1.5470 -1.5624
C -1.6136 -1.5481 -1.5697
C -1.6072 -1.5636 -1.5849
C -1.6098 -1.5665 -1.5864
C -1.6017 -1.5630 -1.5827
C -1.5988 -1.5623 -1.5794
C -1.5986 -1.5646 -1.5864
C -1.5944 -1.5637 -1.5869
C -1.5992 -1.5646 -1.5863
C -1.6007 -1.5705 -1.5877
C -1.6003 -1.5725 -1.5885
C -1.6027 -1.5720 -1.5872
138
REAL frame=131
C -1.6137 -1.5784 -1.5871
C -1.6165 -1.5794 -1.5868
C -1.6135 -1.5750 -1.5863
C -1.6130 -1.5788 -1.5850
C -1.6108 -1.5827 -1.5885
C -1.6072 -1.5834 -1.5891
C -1.6123 -1.5855 -1.5906
C -1.6122 -1.5823 -1.5885
C -1.6168 -1.5846 -1.5866
C -1.6087 -1.5782 -1.5899
C -1.6047 -1.5748 -1.5903
C -1.6096 -1.5761 -1.5912
C -1.6113 -1.5741 -1.5880
C -1.6050 -1.5729 -1.5930
C -1.6031 -1.5666 -1.5904
C -1.6025 -1.5767 -1.5943
C -1.6076 -1.5711 -1.5968
C -1.6077 -1.5796 -1.6005
C -1.6048 -1.5871 -1.6001
C -1.6118 -1.5774 -1.6050
C -1.6104 -1.5838 -1.6082
C -1.6178 -1.5674 -1.6048
C -1.6238 -1.5650 -1.6076
C -1.6159 -1.5613 -1.6043
C -1.6175 -1.5592 -1.6011
C -1.6242 -1.5512 -1.6014
C -1.6121 -1.5612 -1.5967
C -1.6136 -1.5546 -1.5935
C -1.6123 -1.5818 -1.5936
C -1.6148 -1.5873 -1.5925
C -1.6116 -1.5798 -1.5964
C -1.6088 -1.5746 -1.5971
C -1.6118 -1.5838 -1.6006
C -1.6085 -1.5843 -1.6045
C -1.6154 -1.5912 -1.6023
C -1.6142 -1.5952 -1.6023
C -1.6154 -1.5960 -1.6039
C -1.6217 -1.5872 -1.6012
C -1.6197 -1.5809 -1.6010
C -1.6293 -1.5907 -1.6005
C -1.6155 -1.5813 -1.5982
C -1.6166 -1.5789 -1.5959
C -1.6154 -1.5828 -1.5992
C -1.6089 -1.5865 -1.6023
C -1.6098 -1.5911 -1.6032
C -1.6036 -1.5842 -1.6027
C -1.6105 -1.5869 -1.6028
C -1.6144 -1.5905 -1.6039
C -1.6056 -1.5867 -1.6041
C -1.6145 -1.5798 -1.5989
C -1.6183 -1.5799 -1.5980
C -1.6101 -1.5743 -1.5988
C -1.6172 -1.5792 -1.5973
C -1.6165 -1.5730 -1.5968
C -1.6241 -1.5808 -1.5952
C -1.6256 -1.5784 -1.5925
C -1.6275 -1.5847 -1.5958
C -1.6267 -1.5869 -1.5986
C -1.6337 -1.5859 -1.5948
C -1.6352 -1.5842 -1.5945
C -1.6358 -1.5915 -1.5965
C -1.6362 -1.5928 -1.5963
C -1.6401 -1.5917 -1.5971
C -1.6328 -1.5961 -1.5990
C -1.6284 -1.5967 -1.6001
C -1.6349 -1.5996 -1.6014
C -1.6316 -1.5937 -1.5994
C -1.6254 -1.5931 -1.5971
C -1.6364 -1.5912 -1.5985
C -1.6372 -1.5827 -1.5934
C -1.6431 -1.5800 -1.5913
C -1.6348 -1.5827 -1.5933
C -1.6286 -1.5840 -1.5954
C -1.6391 -1.5801 -1.5926
C -1.6429 -1.5761 -1.5910
C -1.6422 -1.5865 -1.5948
C -1.6455 -1.5858 -1.5932
C -1.6464 -1.5878 -1.5936
C -1.6434 -1.5834 -1.5904
C -1.6500 -1.5926 -1.5866
C -1.6484 -1.5920 -1.6010
C -1.6374 -1.5920 -1.5972
C -1.6339 -1.5937 -1.5987
C -1.6349 -1.5757 -1.5918
C -1.6363 -1.5800 -1.5943
C -1.6296 -1.5687 -1.5898
C -1.6285 -1.5633 -1.5854
C -1.6268 -1.5685 -1.5934
C -1.6269 -1.5721 -1.5946
C -1.6254 -1.5656 -1.5959
C -1.6246 -1.5677 -1.5919
C -1.6247 -1.5627 -1.5902
C -1.6227 -1.5728 -1.5932
C -1.6228 -1.5766 -1.5946
C -1.6212 -1.5713 -1.5914
C -1.6224 -1.5688 -1.5897
C -1.6221 -1.5758 -1.5919
C -1.6186 -1.5789 -1.5824
C -1.6280 -1.5646 -1.5943
C -1.6282 -1.5589 -1.6023
C -1.6275 -1.5620 -1.5879
C -1.6315 -1.5642 -1.5931
C -1.6224 -1.5875 -1.6000
C -1.6175 -1.5926 -1.6012
C -1.6166 -1.5688 -1.5897
C -1.6126 -1.5678 -1.5935
C -1.6164 -1.5661 -1.5860
C -1.6191 -1.5653 -1.5834
C -1.6119 -1.5625 -1.5856
C -1.6100 -1.5613 -1.5863
C -1.6130 -1.5566 -1.5820
C -1.6157 -1.5600 -1.5810
C -1.6093 -1.5500 -1.5844
C -1.6168 -1.5532 -1.5790
C -1.6223 -1.5535 -1.5833
C -1.6257 -1.5567 -1.5891
C -1.6230 -1.5495 -1.5784
C -1.6264 -1.5487 -1.5794
C -1.6183 -1.5468 -1.5706
C -1.6166 -1.5422 -1.5636
C -1.6183 -1.5405 -1.5628
C -1.6100 -1.5398 -1.5567
C -1.6078 -1.5362 -1.5512
C -1.6061 -1.5417 -1.5568
C -1.6003 -1.5389 -1.5511
C -1.6090 -1.5467 -1.5636
C -1.6048 -1.5481 -1.5640
C -1.6147 -1.5492 -1.5709
C -1.6082 -1.5647 -1.5860
C -1.6109 -1.5676 -1.5876
C -1.6027 -1.5639 -1.5837
C -1.5998 -1.5633 -1.5802
C -1.5998 -1.5657 -1.5876
C -1.5955 -1.5647 -1.5878
C -1.6004 -1.5657 -1.5876
C -1.6018 -1.5715 -1.5889
C -1.6014 -1.5737 -1.5895
C -1.6037 -1.5730 -1.5883
138
REAL frame=132
C -1.6136 -1.5785 -1.5872
C -1.6164 -1.5796 -1.5867
C -1.6133 -1.5752 -1.5867
C -1.6135 -1.5785 -1.5843
C -1.6110 -1.5827 -1.5886
C -1.6072 -1.5834 -1.5888
C -1.6124 -1.5854 -1.5908
C -1.6123 -1.5823 -1.5886
C -1.6167 -1.5845 -1.5867
C -1.6086 -1.5782 -1.5898
C -1.6047 -1.5750 -1.5903
C -1.6095 -1.5761 -1.5913
C -1.6114 -1.5740 -1.5881
C -1.6051 -1.5728 -1.5930
C -1.6030 -1.5664 -1.5905
C -1.6024 -1.5766 -1.5943
C -1.6074 -1.5712 -1.5968
C -1.6078 -1.5796 -1.6005
C -1.6048 -1.5871 -1.6001
C -1.6118 -1.5774 -1.6051
C -1.6103 -1.5838 -1.6082
C -1.6178 -1.5674 -1.6047
C -1.6238 -1.5650 -1.6077
C -1.6154 -1.5618 -1.6037
C -1.6176 -1.5592 -1.6011
C -1.6240 -1.5511 -1.6015
C -1.6122 -1.5611 -1.5967
C -1.6141 -1.5550 -1.5934
C -1.6121 -1.5816 -1.5936
C -1.6149 -1.5874 -1.5925
C -1.6115 -1.5800 -1.5964
C -1.6087 -1.5748 -1.5969
C -1.6117 -1.5839 -1.6007
C -1.6086 -1.5849 -1.6043
C -1.6153 -1.5911 -1.6023
C -1.6143 -1.5956 -1.6024
C -1.6154 -1.5960 -1.6049
C -1.6218 -1.5871 -1.6011
C -1.6198 -1.5808 -1.6009
C -1.6293 -1.5908 -1.6005
C -1.6155 -1.5812 -1.5982
C -1.6167 -1.5789 -1.5960
C -1.6154 -1.5829 -1.5992
C -1.6088 -1.5864 -1.6024
C -1.6096 -1.5912 -1.6030
C -1.6037 -1.5844 -1.6023
C -1.6106 -1.5870 -1.6028
C -1.6146 -1.5910 -1.6038
C -1.6058 -1.5869 -1.6041
C -1.6144 -1.5798 -1.5990
C -1.6187 -1.5800 -1.5979
C -1.6100 -1.5742 -1.5990
C -1.6173 -1.5792 -1.5974
C -1.6163 -1.5734 -1.5968
C -1.6241 -1.5809 -1.5951
C -1.6258 -1.5783 -1.5924
C -1.6276 -1.5846 -1.5959
C -1.6260 -1.5868 -1.5984
C -1.6339 -1.5859 -1.5949
C -1.6351 -1.5840 -1.5941
C -1.6358 -1.5915 -1.5964
C -1.6362 -1.5929 -1.5964
C -1.6402 -1.5917 -1.5972
C -1.6327 -1.5960 -1.5990
C -1.6284 -1.5966 -1.6003
C -1.6349 -1.5995 -1.6014
C -1.6319 -1.5935 -1.5993
C -1.6254 -1.5931 -1.5971
C -1.6365 -1.5911 -1.5984
C -1.6371 -1.5825 -1.5932
C -1.6431 -1.5800 -1.5912
C -1.6349 -1.5828 -1.5934
C -1.6288 -1.5842 -1.5955
C -1.6389 -1.5801 -1.5925
C -1.6422 -1.5762 -1.5912
C -1.6423 -1.5865 -1.5949
C -1.6452 -1.5859 -1.5932
C -1.6465 -1.5878 -1.5935
C -1.6431 -1.5829 -1.5912
C -1.6501 -1.5925 -1.5864
C -1.6480 -1.5923 -1.6010
C -1.6375 -1.5920 -1.5972
C -1.6340 -1.5941 -1.5987
C -1.6348 -1.5759 -1.5917
C -1.6362 -1.5800 -1.5944
C -1.6296 -1.5688 -1.5897
C -1.6281 -1.5635 -1.5854
C -1.6268 -1.5685 -1.5933
C -1.6272 -1.5726 -1.5943
C -1.6254 -1.5657 -1.5958
C -1.6247 -1.5677 -1.5920
C -1.6246 -1.5626 -1.5902
C -1.6227 -1.5727 -1.5932
C -1.6224 -1.5767 -1.5948
C -1.6213 -1.5713 -1.5914
C -1.6228 -1.5687 -1.5898
C -1.6220 -1.5757 -1.5919
C -1.6188 -1.5791 -1.5828
C -1.6281 -1.5645 -1.5942
C -1.6279 -1.5587 -1.6025
C -1.6273 -1.5623 -1.5879
C -1.6315 -1.5643 -1.5931
C -1.6224 -1.5875 -1.5999
C -1.6179 -1.5928 -1.6015
C -1.6165 -1.5689 -1.5896
C -1.6126 -1.5678 -1.5937
C -1.6165 -1.5661 -1.5861
C -1.6192 -1.5656 -1.5833
C -1.6118 -1.5624 -1.5855
C -1.6103 -1.5612 -1.5864
C -1.6131 -1.5566 -1.5821
C -1.6155 -1.5601 -1.5809
C -1.6094 -1.5503 -1.5848
C -1.6168 -1.5533 -1.5790
C -1.6223 -1.5534 -1.5833
C -1.6258 -1.5562 -1.5891
C -1.6230 -1.5496 -1.5784
C -1.6263 -1.5488 -1.5795
C -1.6183 -1.5467 -1.5704
C -1.6165 -1.5422 -1.5634
C -1.6188 -1.5406 -1.5634
C -1.6100 -1.5398 -1.5569
C -1.6077 -1.5362 -1.5514
C -1.6062 -1.5416 -1.5567
C -1.6006 -1.5388 -1.5509
C -1.6090 -1.5466 -1.5636
C -1.6050 -1.5481 -1.5642
C -1.6147 -1.5491 -1.5709
C -1.6083 -1.5648 -1.5860
C -1.6110 -1.5675 -1.5877
C -1.6027 -1.5638 -1.5836
C -1.5999 -1.5628 -1.5800
C -1.5999 -1.5657 -1.5876
C -1.5955 -1.5645 -1.5878
C -1.6005 -1.5659 -1.5877
C -1.6018 -1.5714 -1.5889
C -1.6014 -1.5739 -1.5894
C -1.6038 -1.5729 -1.5884
138
REAL frame=133
C -1.6136 -1.5786 -1.5872
C -1.6163 -1.5795 -1.5868
C -1.6132 -1.5753 -1.5872
C -1.6138 -1.5784 -1.5839
C -1.6111 -1.5827 -1.5887
C -1.6071 -1.5833 -1.5884
C -1.6126 -1.5853 -1.5908
C -1.6123 -1.5823 -1.5887
C -1.6166 -1.5845 -1.5868
C -1.6085 -1.5781 -1.5898
C -1.6049 -1.5754 -1.5903
C -1.6094 -1.5761 -1.5912
C -1.6114 -1.5737 -1.5883
C -1.6051 -1.5727 -1.5929
C -1.6029 -1.5664 -1.5907
C -1.6024 -1.5766 -1.5941
C -1.6073 -1.5713 -1.5968
C -1.6079 -1.5795 -1.6005
C -1.6048 -1.5870 -1.6001
C -1.6117 -1.5775 -1.6051
C -1.6104 -1.5837 -1.6083
C -1.6177 -1.5673 -1.6047
C -1.6238 -1.5650 -1.6078
C -1.6150 -1.5623 -1.6030
C -1.6176 -1.5592 -1.6011
C -1.6235 -1.5511 -1.6014
C -1.6123 -1.5611 -1.5968
C -1.6144 -1.5553 -1.5934
C -1.6120 -1.5814 -1.5936
C -1.6150 -1.5875 -1.5926
C -1.6114 -1.5800 -1.5963
C -1.6086 -1.5750 -1.5966
C -1.6117 -1.5841 -1.6008
C -1.6086 -1.5853 -1.6042
C -1.6153 -1.5910 -1.6024
C -1.6143 -1.5958 -1.6026
C -1.6154 -1.5960 -1.6057
C -1.6218 -1.5871 -1.6010
C -1.6199 -1.5807 -1.6009
C -1.6293 -1.5908 -1.6005
C -1.6154 -1.5812 -1.5983
C -1.6167 -1.5789 -1.5961
C -1.6154 -1.5829 -1.5993
C -1.6088 -1.5864 -1.6024
C -1.6094 -1.5915 -1.6033
C -1.6037 -1.5846 -1.6018
C -1.6107 -1.5870 -1.6028
C -1.6148 -1.5917 -1.6038
C -1.6060 -1.5870 -1.6041
C -1.6143 -1.5798 -1.5991
C -1.6191 -1.5803 -1.5979
C -1.6100 -1.5743 -1.5992
C -1.6174 -1.5791 -1.5973
C -1.6162 -1.5741 -1.5967
C -1.6241 -1.5810 -1.5951
C -1.6260 -1.5782 -1.5923
C -1.6276 -1.5845 -1.5961
C -1.6255 -1.5866 -1.5982
C -1.6341 -1.5859 -1.5950
C -1.6352 -1.5839 -1.5938
C -1.6359 -1.5915 -1.5964
C -1.6361 -1.5929 -1.5963
C -1.6402 -1.5916 -1.5972
C -1.6327 -1.5959 -1.5990
C -1.6285 -1.5966 -1.6002
C -1.6349 -1.5996 -1.6013
C -1.6322 -1.5934 -1.5991
C -1.6255 -1.5932 -1.5970
C -1.6365 -1.5911 -1.5984
C -1.6371 -1.5823 -1.5931
C -1.6432 -1.5801 -1.5912
C -1.6349 -1.5829 -1.5936
C -1.6290 -1.5846 -1.5953
C -1.6388 -1.5802 -1.5923
C -1.6417 -1.5762 -1.5911
C -1.6424 -1.5864 -1.5949
C -1.6448 -1.5859 -1.5932
C -1.6465 -1.5879 -1.5933
C -1.6428 -1.5826 -1.5922
C -1.6504 -1.5921 -1.5862
C -1.6477 -1.5924 -1.6008
C -1.6376 -1.5918 -1.5973
C -1.6341 -1.5946 -1.5986
C -1.6348 -1.5761 -1.5917
C -1.6360 -1.5799 -1.5945
C -1.6297 -1.5689 -1.5895
C -1.6277 -1.5637 -1.5855
C -1.6268 -1.5686 -1.5933
C -1.6275 -1.5728 -1.5941
C -1.6253 -1.5659 -1.5956
C -1.6248 -1.5677 -1.5921
C -1.6246 -1.5626 -1.5902
C -1.6227 -1.5725 -1.5931
C -1.6220 -1.5768 -1.5949
C -1.6214 -1.5714 -1.5913
C -1.6233 -1.5685 -1.5899
C -1.6220 -1.5757 -1.5918
C -1.6189 -1.5794 -1.5833
C -1.6282 -1.5643 -1.5941
C -1.6280 -1.5586 -1.6026
C -1.6272 -1.5625 -1.5879
C -1.6316 -1.5643 -1.5932
C -1.6223 -1.5874 -1.5999
C -1.6183 -1.5930 -1.6018
C -1.6165 -1.5689 -1.5897
C -1.6125 -1.5678 -1.5939
C -1.6166 -1.5661 -1.5862
C -1.6193 -1.5659 -1.5832
C -1.6117 -1.5623 -1.5853
C -1.6104 -1.5611 -1.5865
C -1.6132 -1.5566 -1.5823
C -1.6150 -1.5602 -1.5806
C -1.6096 -1.5508 -1.5849
C -1.6168 -1.5533 -1.5791
C -1.6222 -1.5534 -1.5831
C -1.6257 -1.5557 -1.5890
C -1.6230 -1.5496 -1.5782
C -1.6262 -1.5490 -1.5798
C -1.6182 -1.5466 -1.5702
C -1.6163 -1.5422 -1.5633
C -1.6194 -1.5407 -1.5640
C -1.6101 -1.5398 -1.5570
C -1.6077 -1.5363 -1.5515
C -1.6063 -1.5417 -1.5566
C -1.6010 -1.5389 -1.5508
C -1.6090 -1.5465 -1.5636
C -1.6053 -1.5480 -1.5642
C -1.6147 -1.5490 -1.5709
C -1.6083 -1.5648 -1.5859
C -1.6111 -1.5675 -1.5878
C -1.6026 -1.5637 -1.5836
C -1.6002 -1.5622 -1.5797
C -1.6000 -1.5658 -1.5876
C -1.5956 -1.5643 -1.5878
C -1.6006 -1.5660 -1.5877
C -1.6018 -1.5713 -1.5889
C -1.6014 -1.5740 -1.5894
C -1.6038 -1.5728 -1.5884
138
REAL frame=134
C -1.6136 -1.5787 -1.5872
C -1.6163 -1.5791 -1.5870
C -1.6132 -1.5753 -1.5879
C -1.6139 -1.5785 -1.5839
C -1.6113 -1.5826 -1.5889
C -1.6069 -1.5831 -1.5881
C -1.6129 -1.5853 -1.5906
C -1.6124 -1.5823 -1.5887
C -1.6165 -1.5845 -1.5870
C -1.6085 -1.5781 -1.5897
C -1.6051 -1.5757 -1.5902
C -1.6093 -1.5762 -1.5911
C -1.6114 -1.5734 -1.5887
C -1.6052 -1.5726 -1.5929
C -1.6028 -1.5665 -1.5908
C -1.6025 -1.5768 -1.5937
C -1.6071 -1.5713 -1.5968
C -1.6079 -1.5793 -1.6006
C -1.6047 -1.5869 -1.6002
C -1.6117 -1.5775 -1.6051
C -1.6106 -1.5835 -1.6082
C -1.6177 -1.5673 -1.6047
C -1.6237 -1.5650 -1.6079
C -1.6146 -1.5630 -1.6023
C -1.6177 -1.5592 -1.6010
C -1.6230 -1.5511 -1.6011
C -1.6125 -1.5611 -1.5968
C -1.6146 -1.5554 -1.5934
C -1.6120 -1.5814 -1.5936
C -1.6150 -1.5875 -1.5927
C -1.6113 -1.5800 -1.5963
C -1.6086 -1.5751 -1.5964
C -1.6117 -1.5843 -1.6008
C -1.6083 -1.5856 -1.6041
C -1.6153 -1.5910 -1.6025
C -1.6141 -1.5959 -1.6029
C -1.6153 -1.5959 -1.6063
C -1.6218 -1.5871 -1.6009
C -1.6200 -1.5807 -1.6009
C -1.6293 -1.5908 -1.6005
C -1.6153 -1.5813 -1.5984
C -1.6167 -1.5788 -1.5961
C -1.6152 -1.5828 -1.5993
C -1.6089 -1.5864 -1.6024
C -1.6094 -1.5918 -1.6038
C -1.6037 -1.5846 -1.6013
C -1.6108 -1.5869 -1.6028
C -1.6150 -1.5923 -1.6038
C -1.6061 -1.5871 -1.6040
C -1.6143 -1.5798 -1.5993
C -1.6195 -1.5805 -1.5978
C -1.6099 -1.5744 -1.5993
C -1.6175 -1.5792 -1.5973
C -1.6161 -1.5750 -1.5963
C -1.6241 -1.5810 -1.5950
C -1.6262 -1.5781 -1.5922
C -1.6276 -1.5844 -1.5963
C -1.6252 -1.5865 -1.5980
C -1.6342 -1.5859 -1.5951
C -1.6354 -1.5838 -1.5937
C -1.6360 -1.5915 -1.5964
C -1.6359 -1.5930 -1.5962
C -1.6399 -1.5914 -1.5970
C -1.6327 -1.5958 -1.5991
C -1.6287 -1.5967 -1.5999
C -1.6349 -1.5997 -1.6010
C -1.6324 -1.5933 -1.5989
C -1.6255 -1.5932 -1.5970
C -1.6366 -1.5910 -1.5984
C -1.6370 -1.5822 -1.5930
C -1.6432 -1.5800 -1.5912
C -1.6350 -1.5830 -1.5938
C -1.6293 -1.5850 -1.5951
C -1.6387 -1.5802 -1.5921
C -1.6415 -1.5763 -1.5909
C -1.6424 -1.5864 -1.5948
C -1.6445 -1.5857 -1.5932
C -1.6465 -1.5880 -1.5932
C -1.6425 -1.5824 -1.5933
C -1.6508 -1.5915 -1.5862
C -1.6477 -1.5924 -1.6007
C -1.6376 -1.5917 -1.5973
C -1.6342 -1.5950 -1.5986
C -1.6347 -1.5763 -1.5916
C -1.6359 -1.5799 -1.5945
C -1.6297 -1.5689 -1.5894
C -1.6274 -1.5641 -1.5858
C -1.6268 -1.5687 -1.5932
C -1.6279 -1.5727 -1.5942
C -1.6251 -1.5662 -1.5955
C -1.6249 -1.5677 -1.5921
C -1.6245 -1.5625 -1.5902
C -1.6227 -1.5723 -1.5930
C -1.6216 -1.5770 -1.5949
C -1.6214 -1.5715 -1.5912
C -1.6237 -1.5683 -1.5900
C -1.6220 -1.5757 -1.5917
C -1.6189 -1.5796 -1.5837
C -1.6283 -1.5642 -1.5940
C -1.6282 -1.5585 -1.6025
C -1.6273 -1.5626 -1.5877
C -1.6318 -1.5641 -1.5935
C -1.6222 -1.5873 -1.5999
C -1.6186 -1.5933 -1.6019
C -1.6165 -1.5689 -1.5900
C -1.6125 -1.5678 -1.5940
C -1.6166 -1.5661 -1.5863
C -1.6195 -1.5662 -1.5832
C -1.6117 -1.5621 -1.5853
C -1.6104 -1.5610 -1.5865
C -1.6133 -1.5566 -1.5825
C -1.6143 -1.5601 -1.5801
C -1.6098 -1.5514 -1.5848
C -1.6168 -1.5533 -1.5792
C -1.6222 -1.5533 -1.5830
C -1.6254 -1.5552 -1.5889
C -1.6230 -1.5497 -1.5780
C -1.6262 -1.5493 -1.5801
C -1.6182 -1.5465 -1.5702
C -1.6162 -1.5422 -1.5633
C -1.6199 -1.5408 -1.5643
C -1.6102 -1.5398 -1.5571
C -1.6076 -1.5362 -1.5516
C -1.6064 -1.5417 -1.5566
C -1.6014 -1.5391 -1.5507
C -1.6090 -1.5464 -1.5636
C -1.6056 -1.5479 -1.5639
C -1.6147 -1.5488 -1.5709
C -1.6085 -1.5649 -1.5859
C -1.6112 -1.5674 -1.5880
C -1.6026 -1.5638 -1.5836
C -1.6005 -1.5617 -1.5796
C -1.6001 -1.5658 -1.5876
C -1.5957 -1.5641 -1.5880
C -1.6006 -1.5661 -1.5877
C -1.6018 -1.5712 -1.5888
C -1.6015 -1.5741 -1.5894
C -1.6038 -1.5727 -1.5885
138
REAL frame=135
C -1.6137 -1.5787 -1.5871
C -1.6162 -1.5785 -1.5873
C -1.6132 -1.5753 -1.5884
C -1.6139 -1.5789 -1.5843
C -1.6114 -1.5826 -1.5891
C -1.6068 -1.5828 -1.5880
C -1.6130 -1.5854 -1.5903
C -1.6124 -1.5821 -1.5888
C -1.6164 -1.5846 -1.5871
C -1.6084 -1.5780 -1.5897
C -1.6052 -1.5759 -1.5902
C -1.6093 -1.5763 -1.5910
C -1.6113 -1.5731 -1.5891
C -1.6052 -1.5725 -1.5928
C -1.6027 -1.5665 -1.5909
C -1.6026 -1.5770 -1.5931
C -1.6071 -1.5713 -1.5969
C -1.6079 -1.5791 -1.6007
C -1.6046 -1.5867 -1.6002
C -1.6116 -1.5776 -1.6050
C -1.6110 -1.5834 -1.6082
C -1.6176 -1.5673 -1.6048
C -1.6237 -1.5650 -1.6080
C -1.6145 -1.5634 -1.6017
C -1.6177 -1.5592 -1.6009
C -1.6224 -1.5512 -1.6008
C -1.6126 -1.5611 -1.5969
C -1.6146 -1.5552 -1.5935
C -1.6119 -1.5815 -1.5935
C -1.6151 -1.5875 -1.5927
C -1.6112 -1.5799 -1.5963
C -1.6086 -1.5751 -1.5961
C -1.6117 -1.5845 -1.6008
C -1.6079 -1.5856 -1.6042
C -1.6154 -1.5910 -1.6026
C -1.6138 -1.5957 -1.6033
C -1.6154 -1.5959 -1.6065
C -1.6218 -1.5872 -1.6009
C -1.6200 -1.5806 -1.6009
C -1.6293 -1.5908 -1.6004
C -1.6151 -1.5814 -1.5985
C -1.6168 -1.5788 -1.5961
C -1.6151 -1.5826 -1.5994
C -1.6089 -1.5865 -1.6024
C -1.6093 -1.5921 -1.6046
C -1.6035 -1.5843 -1.6010
C -1.6109 -1.5869 -1.6027
C -1.6151 -1.5929 -1.6037
C -1.6061 -1.5872 -1.6039
C -1.6142 -1.5799 -1.5994
C -1.6198 -1.5808 -1.5979
C -1.6099 -1.5745 -1.5994
C -1.6176 -1.5793 -1.5973
C -1.6162 -1.5760 -1.5959
C -1.6241 -1.5810 -1.5950
C -1.6263 -1.5780 -1.5921
C -1.6276 -1.5844 -1.5964
C -1.6251 -1.5863 -1.5976
C -1.6343 -1.5859 -1.5951
C -1.6358 -1.5837 -1.5938
C -1.6361 -1.5916 -1.5964
C -1.6356 -1.5930 -1.5959
C -1.6396 -1.5911 -1.5967
C -1.6327 -1.5956 -1.5992
C -1.6289 -1.5967 -1.5995
C -1.6350 -1.6000 -1.6007
C -1.6326 -1.5933 -1.5986
C -1.6256 -1.5932 -1.5969
C -1.6366 -1.5909 -1.5984
C -1.6370 -1.5822 -1.5929
C -1.6433 -1.5800 -1.5911
C -1.6350 -1.5831 -1.5940
C -1.6298 -1.5854 -1.5949
C -1.6385 -1.5803 -1.5920
C -1.6415 -1.5764 -1.5906
C -1.6424 -1.5863 -1.5947
C -1.6442 -1.5855 -1.5931
C -1.6465 -1.5882 -1.5931
C -1.6424 -1.5824 -1.5941
C -1.6512 -1.5906 -1.5862
C -1.6479 -1.5924 -1.6006
C -1.6377 -1.5916 -1.5974
C -1.6343 -1.5952 -1.5985
C -1.6346 -1.5765 -1.5916
C -1.6358 -1.5799 -1.5945
C -1.6296 -1.5690 -1.5892
C -1.6274 -1.5644 -1.5861
C -1.6268 -1.5688 -1.5932
C -1.6284 -1.5725 -1.5945
C -1.6250 -1.5665 -1.5954
C -1.6249 -1.5676 -1.5921
C -1.6245 -1.5625 -1.5902
C -1.6227 -1.5722 -1.5930
C -1.6213 -1.5772 -1.5949
C -1.6213 -1.5715 -1.5911
C -1.6240 -1.5682 -1.5900
C -1.6221 -1.5758 -1.5916
C -1.6188 -1.5798 -1.5841
C -1.6284 -1.5640 -1.5939
C -1.6286 -1.5584 -1.6022
C -1.6275 -1.5625 -1.5875
C -1.6321 -1.5638 -1.5939
C -1.6222 -1.5872 -1.5999
C -1.6188 -1.5935 -1.6018
C -1.6166 -1.5689 -1.5904
C -1.6125 -1.5678 -1.5941
C -1.6167 -1.5662 -1.5863
C -1.6198 -1.5665 -1.5832
C -1.6117 -1.5620 -1.5853
C -1.6102 -1.5610 -1.5864
C -1.6134 -1.5566 -1.5826
C -1.6136 -1.5599 -1.5797
C -1.6100 -1.5520 -1.5846
C -1.6168 -1.5532 -1.5793
C -1.6222 -1.5533 -1.5829
C -1.6251 -1.5550 -1.5888
C -1.6230 -1.5498 -1.5778
C -1.6261 -1.5496 -1.5803
C -1.6182 -1.5464 -1.5702
C -1.6161 -1.5421 -1.5634
C -1.6202 -1.5408 -1.5643
C -1.6103 -1.5398 -1.5570
C -1.6077 -1.5361 -1.5516
C -1.6065 -1.5418 -1.5565
C -1.6018 -1.5396 -1.5507
C -1.6089 -1.5462 -1.5636
C -1.6059 -1.5478 -1.5635
C -1.6146 -1.5487 -1.5709
C -1.6086 -1.5649 -1.5858
C -1.6113 -1.5673 -1.5881
C -1.6026 -1.5638 -1.5837
C -1.6008 -1.5613 -1.5797
C -1.6002 -1.5658 -1.5875
C -1.5959 -1.5640 -1.5882
C -1.6006 -1.5662 -1.5877
C -1.6017 -1.5712 -1.5886
C -1.6015 -1.5742 -1.5894
C -1.6038 -1.5726 -1.5886
138
REAL frame=136
C -1.6138 -1.5788 -1.5871
C -1.6160 -1.5777 -1.5876
C -1.6133 -1.5754 -1.5888
C -1.6137 -1.5793 -1.5850
C -1.6115 -1.5826 -1.5892
C -1.6068 -1.5825 -1.5881
C -1.6131 -1.5855 -1.5900
C -1.6124 -1.5820 -1.5888
C -1.6163 -1.5846 -1.5872
C -1.6084 -1.5780 -1.5896
C -1.6053 -1.5760 -1.5903
C -1.6093 -1.5764 -1.5908
C -1.6111 -1.5729 -1.5893
C -1.6052 -1.5725 -1.5927
C -1.6026 -1.5666 -1.5908
C -1.6028 -1.5772 -1.5926
C -1.6070 -1.5713 -1.5970
C -1.6079 -1.5790 -1.6008
C -1.6046 -1.5865 -1.6004
C -1.6116 -1.5776 -1.6050
C -1.6114 -1.5833 -1.6080
C -1.6176 -1.5674 -1.6049
C -1.6236 -1.5651 -1.6081
C -1.6144 -1.5637 -1.6013
C -1.6178 -1.5591 -1.6008
C -1.6218 -1.5513 -1.6004
C -1.6128 -1.5612 -1.5969
C -1.6145 -1.5549 -1.5936
C -1.6119 -1.5816 -1.5936
C -1.6150 -1.5875 -1.5927
C -1.6111 -1.5797 -1.5963
C -1.6088 -1.5749 -1.5960
C -1.6117 -1.5847 -1.6008
C -1.6074 -1.5855 -1.6043
C -1.6154 -1.5910 -1.6027
C -1.6135 -1.5952 -1.6035
C -1.6155 -1.5959 -1.6062
C -1.6218 -1.5872 -1.6010
C -1.6201 -1.5805 -1.6009
C -1.6293 -1.5908 -1.6004
C -1.6149 -1.5816 -1.5986
C -1.6168 -1.5787 -1.5962
C -1.6149 -1.5823 -1.5995
C -1.6090 -1.5865 -1.6023
C -1.6093 -1.5923 -1.6053
C -1.6032 -1.5839 -1.6009
C -1.6110 -1.5869 -1.6027
C -1.6152 -1.5931 -1.6036
C -1.6061 -1.5872 -1.6038
C -1.6143 -1.5799 -1.5995
C -1.6199 -1.5810 -1.5981
C -1.6099 -1.5746 -1.5996
C -1.6177 -1.5794 -1.5973
C -1.6164 -1.5767 -1.5954
C -1.6241 -1.5809 -1.5949
C -1.6265 -1.5779 -1.5921
C -1.6277 -1.5844 -1.5966
C -1.6252 -1.5862 -1.5973
C -1.6344 -1.5857 -1.5951
C -1.6363 -1.5837 -1.5941
C -1.6361 -1.5917 -1.5965
C -1.6354 -1.5929 -1.5958
C -1.6393 -1.5910 -1.5964
C -1.6327 -1.5956 -1.5992
C -1.6290 -1.5967 -1.5991
C -1.6351 -1.6002 -1.6003
C -1.6326 -1.5933 -1.5985
C -1.6257 -1.5931 -1.5968
C -1.6367 -1.5908 -1.5984
C -1.6371 -1.5822 -1.5930
C -1.6433 -1.5799 -1.5911
C -1.6349 -1.5832 -1.5941
C -1.6304 -1.5856 -1.5950
C -1.6385 -1.5803 -1.5919
C -1.6418 -1.5765 -1.5901
C -1.6423 -1.5863 -1.5946
C -1.6441 -1.5852 -1.5930
C -1.6465 -1.5883 -1.5931
C -1.6423 -1.5824 -1.5946
C -1.6515 -1.5897 -1.5863
C -1.6483 -1.5925 -1.6006
C -1.6378 -1.5915 -1.5974
C -1.6344 -1.5951 -1.5986
C -1.6346 -1.5766 -1.5917
C -1.6357 -1.5800 -1.5945
C -1.6295 -1.5690 -1.5891
C -1.6276 -1.5648 -1.5864
C -1.6269 -1.5689 -1.5931
C -1.6287 -1.5721 -1.5948
C -1.6248 -1.5669 -1.5955
C -1.6249 -1.5675 -1.5919
C -1.6245 -1.5624 -1.5903
C -1.6227 -1.5721 -1.5929
C -1.6210 -1.5772 -1.5949
C -1.6212 -1.5715 -1.5910
C -1.6239 -1.5683 -1.5899
C -1.6221 -1.5760 -1.5916
C -1.6186 -1.5800 -1.5841
C -1.6284 -1.5639 -1.5938
C -1.6290 -1.5583 -1.6017
C -1.6279 -1.5622 -1.5872
C -1.6324 -1.5633 -1.5943
C -1.6222 -1.5871 -1.6000
C -1.6188 -1.5938 -1.6015
C -1.6167 -1.5688 -1.5908
C -1.6124 -1.5678 -1.5942
C -1.6167 -1.5662 -1.5863
C -1.6202 -1.5668 -1.5833
C -1.6117 -1.5619 -1.5853
C -1.6098 -1.5610 -1.5861
C -1.6135 -1.5565 -1.5826
C -1.6131 -1.5598 -1.5794
C -1.6101 -1.5524 -1.5843
C -1.6168 -1.5532 -1.5793
C -1.6221 -1.5533 -1.5827
C -1.6248 -1.5549 -1.5887
C -1.6230 -1.5498 -1.5776
C -1.6261 -1.5497 -1.5802
C -1.6182 -1.5464 -1.5702
C -1.6160 -1.5420 -1.5636
C -1.6204 -1.5407 -1.5639
C -1.6103 -1.5398 -1.5568
C -1.6079 -1.5360 -1.5515
C -1.6066 -1.5418 -1.5565
C -1.6022 -1.5400 -1.5508
C -1.6089 -1.5461 -1.5637
C -1.6062 -1.5476 -1.5631
C -1.6146 -1.5486 -1.5709
C -1.6087 -1.5649 -1.5857
C -1.6113 -1.5673 -1.5883
C -1.6026 -1.5639 -1.5837
C -1.6009 -1.5613 -1.5799
C -1.6002 -1.5658 -1.5873
C -1.5960 -1.5640 -1.5886
C -1.6005 -1.5662 -1.5875
C -1.6017 -1.5711 -1.5884
C -1.6015 -1.5742 -1.5895
C -1.6037 -1.5725 -1.5886
138
REAL frame=137
C -1.6140 -1.5788 -1.5871
C -1.6157 -1.5770 -1.5877
C -1.6133 -1.5756 -1.5890
C -1.6134 -1.5796 -1.5857
C -1.6116 -1.5826 -1.5893
C -1.6069 -1.5823 -1.5885
C -1.6131 -1.5857 -1.5898
C -1.6124 -1.5819 -1.5889
C -1.6162 -1.5846 -1.5873
C -1.6084 -1.5780 -1.5895
C -1.6052 -1.5759 -1.5903
C -1.6093 -1.5765 -1.5907
C -1.6109 -1.5729 -1.5894
C -1.6051 -1.5725 -1.5926
C -1.6026 -1.5665 -1.5907
C -1.6029 -1.5774 -1.5923
C -1.6070 -1.5712 -1.5972
C -1.6078 -1.5789 -1.6009
C -1.6046 -1.5864 -1.6007
C -1.6116 -1.5775 -1.6049
C -1.6119 -1.5833 -1.6079
C -1.6176 -1.5675 -1.6049
C -1.6234 -1.5651 -1.6082
C -1.6146 -1.5635 -1.6010
C -1.6178 -1.5591 -1.6007
C -1.6214 -1.5515 -1.6001
C -1.6129 -1.5613 -1.5970
C -1.6142 -1.5546 -1.5938
C -1.6120 -1.5819 -1.5936
C -1.6150 -1.5874 -1.5927
C -1.6110 -1.5796 -1.5964
C -1.6090 -1.5746 -1.5960
C -1.6117 -1.5849 -1.6007
C -1.6070 -1.5853 -1.6044
C -1.6155 -1.5911 -1.6028
C -1.6131 -1.5946 -1.6037
C -1.6157 -1.5960 -1.6057
C -1.6218 -1.5873 -1.6011
C -1.6201 -1.5804 -1.6009
C -1.6293 -1.5908 -1.6003
C -1.6147 -1.5817 -1.5987
C -1.6169 -1.5787 -1.5962
C -1.6148 -1.5821 -1.5995
C -1.6091 -1.5866 -1.6023
C -1.6094 -1.5925 -1.6059
C -1.6030 -1.5833 -1.6010
C -1.6110 -1.5869 -1.6026
C -1.6152 -1.5930 -1.6035
C -1.6060 -1.5872 -1.6037
C -1.6143 -1.5800 -1.5995
C -1.6198 -1.5810 -1.5984
C -1.6100 -1.5747 -1.5997
C -1.6178 -1.5796 -1.5974
C -1.6166 -1.5771 -1.5950
C -1.6241 -1.5808 -1.5949
C -1.6267 -1.5778 -1.5920
C -1.6277 -1.5845 -1.5966
C -1.6254 -1.5861 -1.5970
C -1.6344 -1.5856 -1.5951
C -1.6368 -1.5837 -1.5945
C -1.6361 -1.5917 -1.5966
C -1.6352 -1.5929 -1.5957
C -1.6391 -1.5910 -1.5961
C -1.6329 -1.5955 -1.5991
C -1.6290 -1.5967 -1.5988
C -1.6352 -1.6003 -1.6001
C -1.6324 -1.5934 -1.5985
C -1.6260 -1.5931 -1.5967
C -1.6368 -1.5906 -1.5984
C -1.6371 -1.5824 -1.5931
C -1.6433 -1.5799 -1.5910
C -1.6349 -1.5832 -1.5940
C -1.6310 -1.5856 -1.5953
C -1.6384 -1.5804 -1.5920
C -1.6421 -1.5766 -1.5897
C -1.6422 -1.5862 -1.5944
C -1.6442 -1.5849 -1.5928
C -1.6465 -1.5884 -1.5931
C -1.6421 -1.5826 -1.5948
C -1.6517 -1.5889 -1.5862
C -1.6488 -1.5928 -1.6006
C -1.6379 -1.5914 -1.5975
C -1.6344 -1.5947 -1.5987
C -1.6346 -1.5767 -1.5918
C -1.6356 -1.5801 -1.5944
C -1.6294 -1.5690 -1.5890
C -1.6281 -1.5651 -1.5866
C -1.6269 -1.5691 -1.5931
C -1.6289 -1.5717 -1.5952
C -1.6248 -1.5673 -1.5957
C -1.6248 -1.5673 -1.5918
C -1.6245 -1.5624 -1.5903
C -1.6227 -1.5721 -1.5928
C -1.6209 -1.5772 -1.5949
C -1.6212 -1.5714 -1.5910
C -1.6236 -1.5684 -1.5897
C -1.6222 -1.5762 -1.5915
C -1.6184 -1.5800 -1.5840
C -1.6284 -1.5638 -1.5937
C -1.6293 -1.5582 -1.6013
C -1.6285 -1.5619 -1.5868
C -1.6328 -1.5628 -1.5946
C -1.6222 -1.5870 -1.6000
C -1.6186 -1.5941 -1.6010
C -1.6167 -1.5687 -1.5911
C -1.6123 -1.5678 -1.5942
C -1.6168 -1.5662 -1.5864
C -1.6206 -1.5670 -1.5834
C -1.6118 -1.5619 -1.5854
C -1.6095 -1.5610 -1.5858
C -1.6134 -1.5564 -1.5825
C -1.6129 -1.5596 -1.5792
C -1.6101 -1.5525 -1.5841
C -1.6168 -1.5532 -1.5793
C -1.6221 -1.5532 -1.5826
C -1.6244 -1.5550 -1.5886
C -1.6230 -1.5499 -1.5774
C -1.6260 -1.5497 -1.5799
C -1.6182 -1.5464 -1.5703
C -1.6160 -1.5419 -1.5638
C -1.6203 -1.5405 -1.5634
C -1.6103 -1.5398 -1.5566
C -1.6082 -1.5359 -1.5513
C -1.6068 -1.5419 -1.5564
C -1.6026 -1.5404 -1.5509
C -1.6089 -1.5460 -1.5637
C -1.6065 -1.5474 -1.5628
C -1.6145 -1.5485 -1.5709
C -1.6087 -1.5649 -1.5857
C -1.6114 -1.5672 -1.5884
C -1.6028 -1.5640 -1.5838
C -1.6008 -1.5616 -1.5804
C -1.6002 -1.5658 -1.5871
C -1.5961 -1.5640 -1.5889
C -1.6004 -1.5662 -1.5873
C -1.6017 -1.5711 -1.5882
C -1.6016 -1.5743 -1.5896
C -1.6037 -1.5724 -1.5887
138
REAL frame=138
C -1.6141 -1.5788 -1.5873
C -1.6154 -1.5765 -1.5876
C -1.6133 -1.5758 -1.5888
C -1.6133 -1.5798 -1.5864
C -1.6117 -1.5825 -1.5893
C -1.6071 -1.5821 -1.5891
C -1.6131 -1.5859 -1.5899
C -1.6123 -1.5818 -1.5889
C -1.6161 -1.5846 -1.5874
C -1.6084 -1.5780 -1.5894
C -1.6050 -1.5757 -1.5904
C -1.6093 -1.5766 -1.5906
C -1.6107 -1.5730 -1.5891
C -1.6051 -1.5725 -1.5925
C -1.6026 -1.5664 -1.5905
C -1.6029 -1.5775 -1.5921
C -1.6071 -1.5711 -1.5973
C -1.6077 -1.5788 -1.6010
C -1.6046 -1.5862 -1.6009
C -1.6116 -1.5774 -1.6049
C -1.6123 -1.5834 -1.6078
C -1.6176 -1.5675 -1.6050
C -1.6233 -1.5652 -1.6083
C -1.6148 -1.5631 -1.6010
C -1.6179 -1.5591 -1.6006
C -1.6211 -1.5516 -1.5999
C -1.6130 -1.5613 -1.5970
C -1.6138 -1.5544 -1.5939
C -1.6120 -1.5821 -1.5935
C -1.6150 -1.5874 -1.5926
C -1.6108 -1.5795 -1.5964
C -1.6092 -1.5742 -1.5961
C -1.6117 -1.5850 -1.6007
C -1.6066 -1.5851 -1.6044
C -1.6156 -1.5912 -1.6029
C -1.6129 -1.5940 -1.6037
C -1.6160 -1.5959 -1.6051
C -1.6219 -1.5874 -1.6012
C -1.6201 -1.5804 -1.6009
C -1.6294 -1.5907 -1.6002
C -1.6144 -1.5819 -1.5988
C -1.6170 -1.5787 -1.5962
C -1.6147 -1.5821 -1.5996
C -1.6091 -1.5867 -1.6023
C -1.6093 -1.5926 -1.6061
C -1.6028 -1.5827 -1.6013
C -1.6110 -1.5869 -1.6025
C -1.6152 -1.5925 -1.6034
C -1.6058 -1.5871 -1.6036
C -1.6145 -1.5801 -1.5995
C -1.6196 -1.5810 -1.5987
C -1.6102 -1.5748 -1.5998
C -1.6178 -1.5797 -1.5975
C -1.6168 -1.5771 -1.5947
C -1.6241 -1.5806 -1.5950
C -1.6268 -1.5777 -1.5919
C -1.6279 -1.5845 -1.5967
C -1.6256 -1.5861 -1.5968
C -1.6344 -1.5855 -1.5951
C -1.6372 -1.5838 -1.5949
C -1.6361 -1.5917 -1.5967
C -1.6352 -1.5929 -1.5957
C -1.6391 -1.5911 -1.5959
C -1.6330 -1.5956 -1.5990
C -1.6289 -1.5966 -1.5988
C -1.6354 -1.6004 -1.6001
C -1.6323 -1.5934 -1.5985
C -1.6262 -1.5930 -1.5966
C -1.6369 -1.5905 -1.5984
C -1.6372 -1.5825 -1.5933
C -1.6433 -1.5798 -1.5910
C -1.6348 -1.5832 -1.5940
C -1.6317 -1.5854 -1.5958
C -1.6384 -1.5805 -1.5921
C -1.6425 -1.5768 -1.5894
C -1.6420 -1.5862 -1.5942
C -1.6444 -1.5846 -1.5926
C -1.6465 -1.5885 -1.5932
C -1.6418 -1.5827 -1.5948
C -1.6516 -1.5883 -1.5859
C -1.6494 -1.5933 -1.6006
C -1.6381 -1.5914 -1.5975
C -1.6344 -1.5941 -1.5988
C -1.6345 -1.5767 -1.5919
C -1.6355 -1.5802 -1.5942
C -1.6292 -1.5690 -1.5889
C -1.6286 -1.5654 -1.5869
C -1.6270 -1.5692 -1.5931
C -1.6291 -1.5715 -1.5954
C -1.6247 -1.5675 -1.5959
C -1.6247 -1.5672 -1.5916
C -1.6245 -1.5624 -1.5903
C -1.6227 -1.5721 -1.5926
C -1.6209 -1.5771 -1.5948
C -1.6212 -1.5713 -1.5911
C -1.6230 -1.5687 -1.5894
C -1.6223 -1.5764 -1.5914
C -1.6184 -1.5801 -1.5836
C -1.6285 -1.5637 -1.5936
C -1.6294 -1.5580 -1.6009
C -1.6291 -1.5616 -1.5864
C -1.6331 -1.5624 -1.5948
C -1.6222 -1.5869 -1.6001
C -1.6184 -1.5943 -1.6005
C -1.6167 -1.5685 -1.5913
C -1.6123 -1.5679 -1.5943
C -1.6169 -1.5663 -1.5865
C -1.6209 -1.5673 -1.5835
C -1.6120 -1.5620 -1.5855
C -1.6093 -1.5611 -1.5856
C -1.6134 -1.5563 -1.5823
C -1.6131 -1.5596 -1.5792
C -1.6100 -1.5523 -1.5839
C -1.6168 -1.5531 -1.5792
C -1.6221 -1.5532 -1.5825
C -1.6241 -1.5553 -1.5884
C -1.6230 -1.5499 -1.5773
C -1.6260 -1.5494 -1.5793
C -1.6181 -1.5465 -1.5704
C -1.6160 -1.5419 -1.5639
C -1.6200 -1.5403 -1.5630
C -1.6103 -1.5398 -1.5564
C -1.6085 -1.5359 -1.5510
C -1.6069 -1.5419 -1.5564
C -1.6029 -1.5407 -1.5510
C -1.6089 -1.5459 -1.5637
C -1.6067 -1.5473 -1.5627
C -1.6144 -1.5485 -1.5709
C -1.6087 -1.5648 -1.5857
C -1.6115 -1.5671 -1.5885
C -1.6030 -1.5640 -1.5839
C -1.6007 -1.5622 -1.5810
C -1.6001 -1.5659 -1.5869
C -1.5962 -1.5641 -1.5891
C -1.6002 -1.5662 -1.5871
C -1.6017 -1.5710 -1.5880
C -1.6016 -1.5743 -1.5896
C -1.6036 -1.5724 -1.5887
138
REAL frame=139
C -1.6142 -1.5787 -1.5875
C -1.6152 -1.5764 -1.5873
C -1.6132 -1.5762 -1.5886
C -1.6134 -1.5798 -1.5867
C -1.6118 -1.5824 -1.5893
C -1.6074 -1.5821 -1.5897
C -1.6131 -1.5859 -1.5901
C -1.6121 -1.5818 -1.5889
C -1.6161 -1.5846 -1.5875
C -1.6084 -1.5781 -1.5893
C -1.6048 -1.5755 -1.5904
C -1.6094 -1.5766 -1.5906
C -1.6107 -1.5734 -1.5887
C -1.6050 -1.5726 -1.5924
C -1.6027 -1.5663 -1.5902
C -1.6028 -1.5775 -1.5922
C -1.6072 -1.5710 -1.5974
C -1.6075 -1.5788 -1.6010
C -1.6046 -1.5861 -1.6011
C -1.6117 -1.5772 -1.6050
C -1.6126 -1.5835 -1.6077
C -1.6176 -1.5674 -1.6050
C -1.6231 -1.5653 -1.6083
C -1.6152 -1.5624 -1.6012
C -1.6179 -1.5591 -1.6006
C -1.6211 -1.5516 -1.5999
C -1.6132 -1.5613 -1.5971
C -1.6134 -1.5545 -1.5940
C -1.6120 -1.5822 -1.5935
C -1.6149 -1.5874 -1.5927
C -1.6107 -1.5795 -1.5965
C -1.6094 -1.5739 -1.5963
C -1.6116 -1.5850 -1.6006
C -1.6064 -1.5850 -1.6044
C -1.6157 -1.5913 -1.6030
C -1.6127 -1.5934 -1.6036
C -1.6164 -1.5959 -1.6046
C -1.6219 -1.5875 -1.6014
C -1.6200 -1.5804 -1.6010
C -1.6294 -1.5907 -1.6001
C -1.6142 -1.5820 -1.5988
C -1.6171 -1.5787 -1.5963
C -1.6146 -1.5821 -1.5996
C -1.6092 -1.5867 -1.6023
C -1.6093 -1.5928 -1.6058
C -1.6027 -1.5822 -1.6018
C -1.6110 -1.5870 -1.6025
C -1.6151 -1.5919 -1.6034
C -1.6057 -1.5871 -1.6035
C -1.6146 -1.5801 -1.5995
C -1.6193 -1.5809 -1.5989
C -1.6103 -1.5749 -1.5998
C -1.6178 -1.5797 -1.5975
C -1.6169 -1.5767 -1.5948
C -1.6241 -1.5805 -1.5950
C -1.6269 -1.5776 -1.5919
C -1.6280 -1.5846 -1.5966
C -1.6258 -1.5862 -1.5969
C -1.6344 -1.5854 -1.5952
C -1.6375 -1.5838 -1.5952
C -1.6360 -1.5917 -1.5967
C -1.6353 -1.5929 -1.5959
C -1.6394 -1.5914 -1.5959
C -1.6332 -1.5957 -1.5989
C -1.6288 -1.5965 -1.5988
C -1.6356 -1.6003 -1.6003
C -1.6321 -1.5933 -1.5984
C -1.6264 -1.5929 -1.5965
C -1.6369 -1.5905 -1.5984
C -1.6374 -1.5826 -1.5934
C -1.6433 -1.5798 -1.5909
C -1.6348 -1.5832 -1.5939
C -1.6324 -1.5852 -1.5961
C -1.6385 -1.5805 -1.5922
C -1.6428 -1.5769 -1.5893
C -1.6418 -1.5862 -1.5939
C -1.6446 -1.5845 -1.5923
C -1.6465 -1.5885 -1.5933
C -1.6416 -1.5829 -1.5946
C -1.6513 -1.5882 -1.5854
C -1.6499 -1.5940 -1.6006
C -1.6381 -1.5913 -1.5975
C -1.6344 -1.5933 -1.5989
C -1.6344 -1.5767 -1.5920
C -1.6355 -1.5803 -1.5941
C -1.6291 -1.5690 -1.5888
C -1.6289 -1.5658 -1.5871
C -1.6270 -1.5692 -1.5932
C -1.6291 -1.5716 -1.5955
C -1.6248 -1.5676 -1.5963
C -1.6246 -1.5672 -1.5915
C -1.6245 -1.5623 -1.5903
C -1.6227 -1.5721 -1.5925
C -1.6210 -1.5769 -1.5947
C -1.6212 -1.5712 -1.5911
C -1.6223 -1.5691 -1.5891
C -1.6224 -1.5765 -1.5914
C -1.6185 -1.5801 -1.5831
C -1.6285 -1.5637 -1.5935
C -1.6293 -1.5579 -1.6007
C -1.6296 -1.5614 -1.5862
C -1.6333 -1.5620 -1.5949
C -1.6222 -1.5868 -1.6002
C -1.6182 -1.5944 -1.6001
C -1.6167 -1.5684 -1.5913
C -1.6122 -1.5679 -1.5945
C -1.6171 -1.5663 -1.5868
C -1.6211 -1.5676 -1.5837
C -1.6121 -1.5621 -1.5856
C -1.6092 -1.5611 -1.5854
C -1.6133 -1.5562 -1.5821
C -1.6137 -1.5595 -1.5793
C -1.6098 -1.5518 -1.5838
C -1.6168 -1.5530 -1.5790
C -1.6220 -1.5531 -1.5824
C -1.6239 -1.5555 -1.5883
C -1.6231 -1.5499 -1.5773
C -1.6260 -1.5491 -1.5786
C -1.6181 -1.5465 -1.5705
C -1.6160 -1.5418 -1.5640
C -1.6196 -1.5402 -1.5628
C -1.6103 -1.5397 -1.5563
C -1.6090 -1.5361 -1.5507
C -1.6070 -1.5420 -1.5564
C -1.6033 -1.5409 -1.5511
C -1.6089 -1.5458 -1.5637
C -1.6069 -1.5473 -1.5629
C -1.6143 -1.5485 -1.5710
C -1.6087 -1.5647 -1.5857
C -1.6116 -1.5671 -1.5887
C -1.6032 -1.5641 -1.5840
C -1.6005 -1.5629 -1.5817
C -1.6000 -1.5659 -1.5868
C -1.5962 -1.5641 -1.5891
C -1.5999 -1.5661 -1.5867
C -1.6018 -1.5709 -1.5880
C -1.6017 -1.5743 -1.5896
C -1.6036 -1.5723 -1.5887
138
REAL frame=140
C -1.6143 -1.5787 -1.5877
C -1.6152 -1.5766 -1.5869
C -1.6131 -1.5766 -1.5882
C -1.6137 -1.5796 -1.5867
C -1.6118 -1.5823 -1.5893
C -1.6077 -1.5821 -1.5902
C -1.6130 -1.5859 -1.5906
C -1.6120 -1.5819 -1.5889
C -1.6162 -1.5845 -1.5876
C -1.6083 -1.5781 -1.5893
C -1.6047 -1.5753 -1.5903
C -1.6094 -1.5766 -1.5906
C -1.6108 -1.5738 -1.5882
C -1.6049 -1.5727 -1.5923
C -1.6028 -1.5661 -1.5900
C -1.6026 -1.5774 -1.5924
C -1.6073 -1.5710 -1.5975
C -1.6073 -1.5789 -1.6011
C -1.6047 -1.5861 -1.6012
C -1.6118 -1.5771 -1.6051
C -1.6129 -1.5835 -1.6077
C -1.6175 -1.5674 -1.6049
C -1.6229 -1.5654 -1.6084
C -1.6158 -1.5616 -1.6016
C -1.6179 -1.5591 -1.6006
C -1.6212 -1.5516 -1.6000
C -1.6132 -1.5612 -1.5971
C -1.6131 -1.5549 -1.5940
C -1.6120 -1.5821 -1.5934
C -1.6149 -1.5874 -1.5927
C -1.6106 -1.5795 -1.5965
C -1.6095 -1.5737 -1.5964
C -1.6115 -1.5850 -1.6006
C -1.6064 -1.5851 -1.6044
C -1.6158 -1.5914 -1.6031
C -1.6127 -1.5932 -1.6034
C -1.6169 -1.5958 -1.6043
C -1.6219 -1.5875 -1.6015
C -1.6200 -1.5803 -1.6011
C -1.6294 -1.5906 -1.6001
C -1.6140 -1.5820 -1.5989
C -1.6171 -1.5787 -1.5963
C -1.6146 -1.5823 -1.5996
C -1.6092 -1.5867 -1.6024
C -1.6092 -1.5929 -1.6053
C -1.6027 -1.5820 -1.6024
C -1.6109 -1.5871 -1.6024
C -1.6150 -1.5912 -1.6034
C -1.6057 -1.5870 -1.6035
C -1.6148 -1.5802 -1.5995
C -1.6190 -1.5808 -1.5991
C -1.6104 -1.5751 -1.5998
C -1.6178 -1.5796 -1.5976
C -1.6168 -1.5759 -1.5952
C -1.6242 -1.5804 -1.5950
C -1.6270 -1.5775 -1.5919
C -1.6281 -1.5846 -1.5966
C -1.6260 -1.5863 -1.5971
C -1.6344 -1.5853 -1.5953
C -1.6375 -1.5837 -1.5954
C -1.6359 -1.5917 -1.5966
C -1.6354 -1.5931 -1.5962
C -1.6397 -1.5917 -1.5960
C -1.6335 -1.5958 -1.5987
C -1.6288 -1.5964 -1.5989
C -1.6358 -1.6001 -1.6005
C -1.6321 -1.5931 -1.5983
C -1.6265 -1.5928 -1.5965
C -1.6370 -1.5905 -1.5984
C -1.6375 -1.5826 -1.5935
C -1.6433 -1.5798 -1.5909
C -1.6347 -1.5831 -1.5938
C -1.6329 -1.5850 -1.5961
C -1.6385 -1.5806 -1.5923
C -1.6429 -1.5770 -1.5895
C -1.6417 -1.5862 -1.5936
C -1.6447 -1.5845 -1.5921
C -1.6465 -1.5885 -1.5935
C -1.6413 -1.5830 -1.5945
C -1.6509 -1.5883 -1.5847
C -1.6502 -1.5947 -1.6006
C -1.6382 -1.5912 -1.5975
C -1.6344 -1.5926 -1.5990
C -1.6344 -1.5767 -1.5920
C -1.6354 -1.5804 -1.5939
C -1.6290 -1.5689 -1.5887
C -1.6289 -1.5660 -1.5873
C -1.6270 -1.5693 -1.5933
C -1.6290 -1.5719 -1.5954
C -1.6249 -1.5676 -1.5967
C -1.6246 -1.5673 -1.5914
C -1.6244 -1.5622 -1.5903
C -1.6226 -1.5721 -1.5923
C -1.6212 -1.5767 -1.5945
C -1.6212 -1.5712 -1.5912
C -1.6217 -1.5695 -1.5890
C -1.6224 -1.5766 -1.5913
C -1.6188 -1.5801 -1.5826
C -1.6286 -1.5636 -1.5934
C -1.6289 -1.5577 -1.6007
C -1.6300 -1.5614 -1.5859
C -1.6335 -1.5618 -1.5948
C -1.6222 -1.5867 -1.6003
C -1.6181 -1.5945 -1.5998
C -1.6166 -1.5682 -1.5913
C -1.6122 -1.5680 -1.5946
C -1.6173 -1.5663 -1.5870
C -1.6213 -1.5679 -1.5838
C -1.6122 -1.5621 -1.5857
C -1.6094 -1.5612 -1.5855
C -1.6132 -1.5562 -1.5819
C -1.6144 -1.5594 -1.5796
C -1.6096 -1.5511 -1.5838
C -1.6167 -1.5530 -1.5788
C -1.6220 -1.5531 -1.5824
C -1.6239 -1.5557 -1.5883
C -1.6231 -1.5498 -1.5773
C -1.6261 -1.5488 -1.5780
C -1.6180 -1.5466 -1.5706
C -1.6160 -1.5418 -1.5639
C -1.6191 -1.5401 -1.5630
C -1.6103 -1.5396 -1.5562
C -1.6094 -1.5363 -1.5504
C -1.6071 -1.5419 -1.5564
C -1.6036 -1.5409 -1.5511
C -1.6089 -1.5458 -1.5637
C -1.6069 -1.5473 -1.5633
C -1.6142 -1.5486 -1.5710
C -1.6087 -1.5646 -1.5857
C -1.6116 -1.5670 -1.5888
C -1.6033 -1.5642 -1.5842
C -1.6005 -1.5634 -1.5823
C -1.5999 -1.5659 -1.5866
C -1.5961 -1.5640 -1.5890
C -1.5996 -1.5661 -1.5864
C -1.6018 -1.5707 -1.5880
C -1.6017 -1.5744 -1.5896
C -1.6035 -1.5723 -1.5887
138
REAL frame=141
C -1.6154 -1.5797 -1.5891
C -1.6162 -1.5781 -1.5876
C -1.6141 -1.5781 -1.5891
C -1.6152 -1.5805 -1.5876
C -1.6129 -1.5833 -1.5904
C -1.6091 -1.5833 -1.5916
C -1.6141 -1.5867 -1.5922
C -1.6130 -1.5830 -1.5899
C -1.6172 -1.5855 -1.5887
C -1.6093 -1.5792 -1.5903
C -1.6056 -1.5763 -1.5912
C -1.6105 -1.5777 -1.5916
C -1.6121 -1.5753 -1.5889
C -1.6059 -1.5738 -1.5933
C -1.6040 -1.5669 -1.5908
C -1.6033 -1.5783 -1.5937
C -1.6085 -1.5721 -1.5985
C -1.6082 -1.5800 -1.6022
C -1.6057 -1.5872 -1.6022
C -1.6130 -1.5781 -1.6062
C -1.6141 -1.5844 -1.6088
C -1.6186 -1.5683 -1.6058
C -1.6238 -1.5666 -1.6095
C -1.6176 -1.5620 -1.6030
C -1.6190 -1.5603 -1.6017
C -1.6225 -1.5526 -1.6013
C -1.6144 -1.5622 -1.5982
C -1.6139 -1.5565 -1.5951
C -1.6131 -1.5830 -1.5943
C -1.6158 -1.5885 -1.5938
C -1.6116 -1.5807 -1.5976
C -1.6105 -1.5749 -1.5976
C -1.6124 -1.5860 -1.6017
C -1.6075 -1.5864 -1.6053
C -1.6168 -1.5926 -1.6041
C -1.6140 -1.5943 -1.6043
C -1.6183 -1.5969 -1.6056
C -1.6230 -1.5886 -1.6026
C -1.6209 -1.5814 -1.6023
C -1.6304 -1.5917 -1.6011
C -1.6148 -1.5832 -1.6000
C -1.6183 -1.5799 -1.5975
C -1.6156 -1.5837 -1.6007
C -1.6103 -1.5877 -1.6035
C -1.6101 -1.5940 -1.6056
C -1.6039 -1.5831 -1.6040
C -1.6120 -1.5883 -1.6034
C -1.6159 -1.5918 -1.6045
C -1.6068 -1.5881 -1.6045
C -1.6159 -1.5814 -1.6005
C -1.6199 -1.5818 -1.6002
C -1.6116 -1.5764 -1.6007
C -1.6188 -1.5805 -1.5987
C -1.6178 -1.5762 -1.5970
C -1.6254 -1.5815 -1.5961
C -1.6281 -1.5785 -1.5930
C -1.6293 -1.5857 -1.5976
C -1.6272 -1.5876 -1.5986
C -1.6354 -1.5864 -1.5966
C -1.6382 -1.5847 -1.5964
C -1.6368 -1.5927 -1.5976
C -1.6365 -1.5943 -1.5975
C -1.6412 -1.5932 -1.5973
C -1.6347 -1.5970 -1.5997
C -1.6299 -1.5975 -1.6002
C -1.6369 -1.6010 -1.6017
C -1.6332 -1.5940 -1.5992
C -1.6277 -1.5939 -1.5976
C -1.6381 -1.5916 -1.5995
C -1.6388 -1.5837 -1.5946
C -1.6442 -1.5810 -1.5920
C -1.6357 -1.5841 -1.5949
C -1.6343 -1.5861 -1.5970
C -1.6396 -1.5818 -1.5935
C -1.6439 -1.5781 -1.5911
C -1.6426 -1.5874 -1.5945
C -1.6457 -1.5858 -1.5930
C -1.6474 -1.5896 -1.5948
C -1.6421 -1.5842 -1.5956
C -1.6512 -1.5897 -1.5850
C -1.6514 -1.5966 -1.6016
C -1.6393 -1.5922 -1.5987
C -1.6355 -1.5931 -1.6001
C -1.6353 -1.5780 -1.5931
C -1.6364 -1.5816 -1.5949
C -1.6300 -1.5700 -1.5899
C -1.6297 -1.5674 -1.5887
C -1.6280 -1.5705 -1.5945
C -1.6299 -1.5736 -1.5962
C -1.6261 -1.5686 -1.5982
C -1.6257 -1.5685 -1.5925
C -1.6254 -1.5632 -1.5913
C -1.6236 -1.5732 -1.5933
C -1.6226 -1.5777 -1.5953
C -1.6223 -1.5723 -1.5923
C -1.6224 -1.5708 -1.5902
C -1.6235 -1.5777 -1.5923
C -1.6202 -1.5811 -1.5833
C -1.6297 -1.5647 -1.5944
C -1.6293 -1.5586 -1.6021
C -1.6312 -1.5627 -1.5869
C -1.6346 -1.5628 -1.5958
C -1.6232 -1.5878 -1.6015
C -1.6191 -1.5956 -1.6010
C -1.6175 -1.5692 -1.5924
C -1.6132 -1.5692 -1.5958
C -1.6185 -1.5674 -1.5885
C -1.6225 -1.5692 -1.5851
C -1.6134 -1.5633 -1.5868
C -1.6108 -1.5623 -1.5869
C -1.6141 -1.5572 -1.5829
C -1.6161 -1.5604 -1.5810
C -1.6105 -1.5514 -1.5849
C -1.6178 -1.5540 -1.5798
C -1.6230 -1.5543 -1.5835
C -1.6249 -1.5570 -1.5894
C -1.6242 -1.5509 -1.5785
C -1.6272 -1.5497 -1.5789
C -1.6190 -1.5478 -1.5718
C -1.6170 -1.5429 -1.5649
C -1.6196 -1.5413 -1.5647
C -1.6114 -1.5407 -1.5574
C -1.6108 -1.5377 -1.5514
C -1.6083 -1.5430 -1.5576
C -1.6049 -1.5419 -1.5522
C -1.6100 -1.5469 -1.5649
C -1.6079 -1.5485 -1.5649
C -1.6152 -1.5498 -1.5722
C -1.6098 -1.5656 -1.5870
C -1.6127 -1.5680 -1.5900
C -1.6046 -1.5654 -1.5854
C -1.6018 -1.5647 -1.5840
C -1.6009 -1.5671 -1.5876
C -1.5970 -1.5649 -1.5897
C -1.6004 -1.5671 -1.5872
C -1.6029 -1.5717 -1.5891
C -1.6028 -1.5754 -1.5907
C -1.6045 -1.5734 -1.5898
138
REAL frame=142
C -1.6155 -1.5796 -1.5893
C -1.6165 -1.5786 -1.5875
C -1.6140 -1.5784 -1.5890
C -1.6158 -1.5804 -1.5874
C -1.6129 -1.5832 -1.5905
C -1.6093 -1.5835 -1.5916
C -1.6142 -1.5862 -1.5927
C -1.6130 -1.5831 -1.5898
C -1.6173 -1.5854 -1.5888
C -1.6092 -1.5792 -1.5903
C -1.6055 -1.5763 -1.5908
C -1.6105 -1.5778 -1.5916
C -1.6124 -1.5756 -1.5886
C -1.6059 -1.5739 -1.5933
C -1.6040 -1.5668 -1.5907
C -1.6029 -1.5782 -1.5939
C -1.6087 -1.5722 -1.5984
C -1.6081 -1.5801 -1.6024
C -1.6056 -1.5874 -1.6021
C -1.6132 -1.5780 -1.6062
C -1.6140 -1.5840 -1.6090
C -1.6185 -1.5682 -1.6056
C -1.6236 -1.5666 -1.6096
C -1.6183 -1.5614 -1.6033
C -1.6191 -1.5603 -1.6018
C -1.6229 -1.5525 -1.6015
C -1.6144 -1.5622 -1.5982
C -1.6138 -1.5569 -1.5951
C -1.6131 -1.5828 -1.5941
C -1.6158 -1.5886 -1.5938
C -1.6115 -1.5808 -1.5977
C -1.6103 -1.5751 -1.5976
C -1.6123 -1.5859 -1.6017
C -1.6077 -1.5867 -1.6052
C -1.6169 -1.5926 -1.6041
C -1.6143 -1.5947 -1.6042
C -1.6186 -1.5970 -1.6060
C -1.6231 -1.5885 -1.6026
C -1.6209 -1.5814 -1.6025
C -1.6304 -1.5916 -1.6010
C -1.6146 -1.5831 -1.6000
C -1.6183 -1.5800 -1.5975
C -1.6155 -1.5840 -1.6006
C -1.6102 -1.5877 -1.6035
C -1.6099 -1.5940 -1.6048
C -1.6041 -1.5834 -1.6044
C -1.6120 -1.5883 -1.6033
C -1.6158 -1.5915 -1.6046
C -1.6069 -1.5881 -1.6045
C -1.6161 -1.5814 -1.6005
C -1.6198 -1.5818 -1.6001
C -1.6117 -1.5767 -1.6004
C -1.6189 -1.5803 -1.5988
C -1.6177 -1.5753 -1.5978
C -1.6256 -1.5816 -1.5961
C -1.6281 -1.5784 -1.5930
C -1.6294 -1.5857 -1.5975
C -1.6275 -1.5877 -1.5991
C -1.6354 -1.5864 -1.5968
C -1.6378 -1.5845 -1.5963
C -1.6368 -1.5927 -1.5976
C -1.6364 -1.5944 -1.5976
C -1.6415 -1.5935 -1.5975
C -1.6348 -1.5970 -1.5997
C -1.6302 -1.5976 -1.6003
C -1.6370 -1.6009 -1.6018
C -1.6333 -1.5938 -1.5990
C -1.6277 -1.5939 -1.5977
C -1.6382 -1.5916 -1.5995
C -1.6389 -1.5836 -1.5946
C -1.6442 -1.5812 -1.5921
C -1.6357 -1.5840 -1.5949
C -1.6344 -1.5862 -1.5966
C -1.6397 -1.5819 -1.5936
C -1.6437 -1.5780 -1.5917
C -1.6427 -1.5875 -1.5943
C -1.6455 -1.5860 -1.5927
C -1.6473 -1.5896 -1.5949
C -1.6421 -1.5841 -1.5960
C -1.6505 -1.5902 -1.5844
C -1.6516 -1.5972 -1.6015
C -1.6394 -1.5921 -1.5986
C -1.6357 -1.5926 -1.6002
C -1.6353 -1.5781 -1.5930
C -1.6364 -1.5817 -1.5948
C -1.6300 -1.5699 -1.5899
C -1.6293 -1.5674 -1.5889
C -1.6280 -1.5705 -1.5946
C -1.6299 -1.5743 -1.5958
C -1.6261 -1.5685 -1.5986
C -1.6257 -1.5686 -1.5925
C -1.6253 -1.5631 -1.5912
C -1.6236 -1.5732 -1.5932
C -1.6230 -1.5775 -1.5949
C -1.6224 -1.5724 -1.5923
C -1.6224 -1.5707 -1.5903
C -1.6235 -1.5776 -1.5922
C -1.6206 -1.5810 -1.5830
C -1.6298 -1.5647 -1.5943
C -1.6286 -1.5585 -1.6025
C -1.6311 -1.5630 -1.5869
C -1.6347 -1.5628 -1.5957
C -1.6232 -1.5877 -1.6015
C -1.6192 -1.5955 -1.6013
C -1.6175 -1.5691 -1.5925
C -1.6131 -1.5692 -1.5959
C -1.6186 -1.5674 -1.5887
C -1.6227 -1.5693 -1.5854
C -1.6134 -1.5633 -1.5867
C -1.6113 -1.5625 -1.5873
C -1.6141 -1.5572 -1.5828
C -1.6167 -1.5601 -1.5812
C -1.6104 -1.5509 -1.5847
C -1.6178 -1.5540 -1.5796
C -1.6229 -1.5543 -1.5836
C -1.6251 -1.5569 -1.5895
C -1.6243 -1.5507 -1.5786
C -1.6273 -1.5496 -1.5790
C -1.6189 -1.5478 -1.5717
C -1.6170 -1.5430 -1.5646
C -1.6191 -1.5414 -1.5652
C -1.6114 -1.5406 -1.5574
C -1.6110 -1.5379 -1.5512
C -1.6084 -1.5429 -1.5576
C -1.6052 -1.5416 -1.5521
C -1.6100 -1.5470 -1.5650
C -1.6078 -1.5485 -1.5653
C -1.6150 -1.5498 -1.5722
C -1.6099 -1.5656 -1.5871
C -1.6128 -1.5680 -1.5901
C -1.6047 -1.5654 -1.5855
C -1.6021 -1.5644 -1.5844
C -1.6009 -1.5672 -1.5875
C -1.5968 -1.5648 -1.5892
C -1.6001 -1.5670 -1.5870
C -1.6029 -1.5716 -1.5892
C -1.6028 -1.5754 -1.5907
C -1.6045 -1.5734 -1.5898
138
REAL frame=143
C -1.6154 -1.5796 -1.5893
C -1.6168 -1.5790 -1.5877
C -1.6139 -1.5786 -1.5892
C -1.6165 -1.5804 -1.5874
C -1.6129 -1.5831 -1.5907
C -1.6093 -1.5838 -1.5913
C -1.6144 -1.5857 -1.5930
C -1.6131 -1.5831 -1.5897
C -1.6173 -1.5853 -1.5889
C -1.6091 -1.5792 -1.5903
C -1.6054 -1.5763 -1.5904
C -1.6105 -1.5778 -1.5916
C -1.6128 -1.5757 -1.5885
C -1.6059 -1.5739 -1.5933
C -1.6041 -1.5666 -1.5907
C -1.6025 -1.5781 -1.5939
C -1.6089 -1.5723 -1.5983
C -1.6079 -1.5801 -1.6025
C -1.6053 -1.5876 -1.6021
C -1.6133 -1.5780 -1.6063
C -1.6139 -1.5836 -1.6092
C -1.6185 -1.5681 -1.6055
C -1.6234 -1.5666 -1.6097
C -1.6191 -1.5610 -1.6034
C -1.6191 -1.5602 -1.6019
C -1.6233 -1.5523 -1.6018
C -1.6144 -1.5622 -1.5982
C -1.6138 -1.5571 -1.5951
C -1.6131 -1.5826 -1.5940
C -1.6157 -1.5886 -1.5938
C -1.6115 -1.5809 -1.5977
C -1.6099 -1.5755 -1.5975
C -1.6122 -1.5858 -1.6018
C -1.6080 -1.5869 -1.6051
C -1.6169 -1.5926 -1.6040
C -1.6147 -1.5952 -1.6041
C -1.6187 -1.5970 -1.6067
C -1.6231 -1.5884 -1.6026
C -1.6208 -1.5814 -1.6027
C -1.6304 -1.5916 -1.6010
C -1.6145 -1.5831 -1.6000
C -1.6184 -1.5801 -1.5975
C -1.6155 -1.5843 -1.6006
C -1.6102 -1.5876 -1.6036
C -1.6097 -1.5940 -1.6042
C -1.6042 -1.5838 -1.6047
C -1.6121 -1.5883 -1.6033
C -1.6159 -1.5915 -1.6046
C -1.6071 -1.5881 -1.6045
C -1.6161 -1.5814 -1.6004
C -1.6198 -1.5817 -1.6000
C -1.6117 -1.5770 -1.6001
C -1.6189 -1.5800 -1.5988
C -1.6177 -1.5745 -1.5986
C -1.6258 -1.5816 -1.5961
C -1.6281 -1.5783 -1.5930
C -1.6295 -1.5857 -1.5975
C -1.6278 -1.5878 -1.5995
C -1.6354 -1.5864 -1.5969
C -1.6372 -1.5844 -1.5960
C -1.6368 -1.5927 -1.5975
C -1.6361 -1.5946 -1.5976
C -1.6416 -1.5937 -1.5975
C -1.6349 -1.5970 -1.5997
C -1.6306 -1.5977 -1.6004
C -1.6372 -1.6008 -1.6017
C -1.6336 -1.5938 -1.5987
C -1.6277 -1.5939 -1.5978
C -1.6382 -1.5916 -1.5995
C -1.6391 -1.5835 -1.5945
C -1.6441 -1.5813 -1.5921
C -1.6358 -1.5839 -1.5950
C -1.6343 -1.5863 -1.5961
C -1.6397 -1.5820 -1.5935
C -1.6435 -1.5780 -1.5923
C -1.6428 -1.5876 -1.5942
C -1.6452 -1.5863 -1.5926
C -1.6472 -1.5897 -1.5949
C -1.6422 -1.5840 -1.5966
C -1.6499 -1.5905 -1.5839
C -1.6516 -1.5976 -1.6014
C -1.6394 -1.5919 -1.5986
C -1.6360 -1.5925 -1.6002
C -1.6352 -1.5782 -1.5928
C -1.6363 -1.5817 -1.5947
C -1.6300 -1.5698 -1.5900
C -1.6289 -1.5674 -1.5890
C -1.6279 -1.5706 -1.5947
C -1.6299 -1.5748 -1.5954
C -1.6262 -1.5685 -1.5988
C -1.6257 -1.5687 -1.5926
C -1.6252 -1.5629 -1.5911
C -1.6235 -1.5731 -1.5931
C -1.6234 -1.5774 -1.5946
C -1.6224 -1.5726 -1.5922
C -1.6227 -1.5705 -1.5904
C -1.6236 -1.5774 -1.5921
C -1.6210 -1.5810 -1.5829
C -1.6299 -1.5647 -1.5943
C -1.6279 -1.5585 -1.6027
C -1.6309 -1.5634 -1.5869
C -1.6348 -1.5628 -1.5955
C -1.6231 -1.5877 -1.6015
C -1.6194 -1.5953 -1.6018
C -1.6174 -1.5691 -1.5926
C -1.6131 -1.5692 -1.5960
C -1.6187 -1.5674 -1.5888
C -1.6229 -1.5693 -1.5857
C -1.6134 -1.5632 -1.5865
C -1.6118 -1.5626 -1.5877
C -1.6141 -1.5571 -1.5827
C -1.6169 -1.5599 -1.5812
C -1.6104 -1.5506 -1.5844
C -1.6178 -1.5540 -1.5795
C -1.6228 -1.5543 -1.5836
C -1.6252 -1.5569 -1.5895
C -1.6243 -1.5505 -1.5787
C -1.6275 -1.5496 -1.5795
C -1.6188 -1.5478 -1.5716
C -1.6170 -1.5431 -1.5644
C -1.6188 -1.5416 -1.5655
C -1.6115 -1.5406 -1.5574
C -1.6111 -1.5378 -1.5512
C -1.6086 -1.5428 -1.5576
C -1.6054 -1.5413 -1.5520
C -1.6100 -1.5470 -1.5650
C -1.6077 -1.5486 -1.5655
C -1.6150 -1.5498 -1.5721
C -1.6101 -1.5656 -1.5872
C -1.6128 -1.5679 -1.5902
C -1.6047 -1.5655 -1.5857
C -1.6025 -1.5639 -1.5846
C -1.6009 -1.5673 -1.5874
C -1.5966 -1.5646 -1.5887
C -1.6000 -1.5671 -1.5869
C -1.6030 -1.5715 -1.5892
C -1.6028 -1.5754 -1.5906
C -1.6044 -1.5734 -1.5897
138
REAL frame=144
C -1.6154 -1.5796 -1.5894
C -1.6173 -1.5791 -1.5883
C -1.6138 -1.5786 -1.5894
C -1.6171 -1.5805 -1.5875
C -1.6130 -1.5831 -1.5909
C -1.6092 -1.5839 -1.5910
C -1.6147 -1.5850 -1.5932
C -1.6132 -1.5830 -1.5896
C -1.6173 -1.5852 -1.5889
C -1.6090 -1.5793 -1.5904
C -1.6054 -1.5763 -1.5899
C -1.6105 -1.5779 -1.5916
C -1.6130 -1.5757 -1.5886
C -1.6059 -1.5739 -1.5933
C -1.6040 -1.5665 -1.5907
C -1.6022 -1.5780 -1.5939
C -1.6091 -1.5724 -1.5981
C -1.6078 -1.5802 -1.6026
C -1.6050 -1.5877 -1.6021
C -1.6135 -1.5779 -1.6063
C -1.6136 -1.5831 -1.6093
C -1.6185 -1.5680 -1.6055
C -1.6232 -1.5666 -1.6098
C -1.6198 -1.5608 -1.6033
C -1.6191 -1.5602 -1.6019
C -1.6236 -1.5522 -1.6019
C -1.6143 -1.5623 -1.5981
C -1.6140 -1.5570 -1.5950
C -1.6131 -1.5825 -1.5939
C -1.6156 -1.5886 -1.5937
C -1.6115 -1.5810 -1.5977
C -1.6094 -1.5760 -1.5974
C -1.6121 -1.5857 -1.6018
C -1.6082 -1.5870 -1.6051
C -1.6169 -1.5926 -1.6039
C -1.6150 -1.5958 -1.6041
C -1.6185 -1.5971 -1.6074
C -1.6231 -1.5884 -1.6025
C -1.6208 -1.5814 -1.6030
C -1.6304 -1.5916 -1.6009
C -1.6144 -1.5832 -1.6000
C -1.6184 -1.5802 -1.5976
C -1.6154 -1.5845 -1.6006
C -1.6101 -1.5877 -1.6036
C -1.6096 -1.5939 -1.6040
C -1.6044 -1.5843 -1.6047
C -1.6122 -1.5882 -1.6034
C -1.6161 -1.5918 -1.6046
C -1.6073 -1.5882 -1.6046
C -1.6162 -1.5814 -1.6004
C -1.6199 -1.5817 -1.5999
C -1.6117 -1.5772 -1.5999
C -1.6189 -1.5799 -1.5987
C -1.6178 -1.5739 -1.5993
C -1.6260 -1.5817 -1.5961
C -1.6281 -1.5782 -1.5930
C -1.6295 -1.5857 -1.5974
C -1.6283 -1.5878 -1.6000
C -1.6355 -1.5863 -1.5970
C -1.6367 -1.5843 -1.5959
C -1.6369 -1.5928 -1.5975
C -1.6357 -1.5946 -1.5974
C -1.6416 -1.5936 -1.5974
C -1.6350 -1.5970 -1.5997
C -1.6311 -1.5979 -1.6005
C -1.6373 -1.6007 -1.6014
C -1.6338 -1.5938 -1.5985
C -1.6277 -1.5938 -1.5979
C -1.6383 -1.5915 -1.5995
C -1.6392 -1.5835 -1.5944
C -1.6441 -1.5814 -1.5922
C -1.6359 -1.5838 -1.5951
C -1.6340 -1.5864 -1.5959
C -1.6397 -1.5821 -1.5935
C -1.6431 -1.5780 -1.5927
C -1.6429 -1.5876 -1.5941
C -1.6449 -1.5867 -1.5925
C -1.6470 -1.5898 -1.5949
C -1.6424 -1.5839 -1.5976
C -1.6496 -1.5908 -1.5837
C -1.6517 -1.5978 -1.6012
C -1.6394 -1.5918 -1.5986
C -1.6363 -1.5924 -1.6002
C -1.6352 -1.5782 -1.5926
C -1.6363 -1.5817 -1.5946
C -1.6300 -1.5697 -1.5901
C -1.6286 -1.5672 -1.5890
C -1.6278 -1.5706 -1.5948
C -1.6299 -1.5752 -1.5951
C -1.6261 -1.5686 -1.5990
C -1.6256 -1.5687 -1.5926
C -1.6252 -1.5628 -1.5910
C -1.6235 -1.5731 -1.5931
C -1.6239 -1.5771 -1.5942
C -1.6224 -1.5727 -1.5921
C -1.6234 -1.5701 -1.5905
C -1.6237 -1.5772 -1.5919
C -1.6212 -1.5809 -1.5830
C -1.6300 -1.5646 -1.5943
C -1.6274 -1.5584 -1.6028
C -1.6306 -1.5639 -1.5870
C -1.6350 -1.5627 -1.5955
C -1.6231 -1.5878 -1.6015
C -1.6196 -1.5950 -1.6024
C -1.6174 -1.5691 -1.5929
C -1.6131 -1.5692 -1.5960
C -1.6187 -1.5675 -1.5889
C -1.6233 -1.5692 -1.5860
C -1.6134 -1.5631 -1.5864
C -1.6121 -1.5627 -1.5879
C -1.6142 -1.5570 -1.5827
C -1.6168 -1.5598 -1.5809
C -1.6105 -1.5508 -1.5841
C -1.6178 -1.5540 -1.5795
C -1.6227 -1.5543 -1.5836
C -1.6254 -1.5568 -1.5895
C -1.6243 -1.5503 -1.5788
C -1.6276 -1.5497 -1.5802
C -1.6188 -1.5477 -1.5714
C -1.6170 -1.5431 -1.5642
C -1.6185 -1.5417 -1.5655
C -1.6116 -1.5406 -1.5573
C -1.6111 -1.5376 -1.5514
C -1.6087 -1.5427 -1.5576
C -1.6055 -1.5409 -1.5519
C -1.6101 -1.5471 -1.5651
C -1.6075 -1.5487 -1.5656
C -1.6149 -1.5498 -1.5719
C -1.6103 -1.5657 -1.5874
C -1.6129 -1.5678 -1.5903
C -1.6048 -1.5655 -1.5858
C -1.6030 -1.5632 -1.5847
C -1.6009 -1.5673 -1.5874
C -1.5965 -1.5645 -1.5881
C -1.6001 -1.5671 -1.5868
C -1.6030 -1.5716 -1.5891
C -1.6028 -1.5753 -1.5906
C -1.6044 -1.5735 -1.5896
138
REAL frame=145
C -1.6154 -1.5796 -1.5893
C -1.6176 -1.5790 -1.5891
C -1.6139 -1.5785 -1.5895
C -1.6176 -1.5807 -1.5879
C -1.6130 -1.5831 -1.5912
C -1.6091 -1.5840 -1.5907
C -1.6150 -1.5844 -1.5933
C -1.6132 -1.5828 -1.5896
C -1.6173 -1.5852 -1.5890
C -1.6090 -1.5794 -1.5904
C -1.6053 -1.5762 -1.5895
C -1.6104 -1.5779 -1.5916
C -1.6131 -1.5755 -1.5889
C -1.6059 -1.5738 -1.5934
C -1.6040 -1.5665 -1.5909
C -1.6019 -1.5781 -1.5936
C -1.6093 -1.5724 -1.5981
C -1.6078 -1.5803 -1.6027
C -1.6045 -1.5879 -1.6023
C -1.6136 -1.5779 -1.6063
C -1.6134 -1.5828 -1.6094
C -1.6185 -1.5680 -1.6056
C -1.6231 -1.5665 -1.6100
C -1.6205 -1.5608 -1.6029
C -1.6191 -1.5601 -1.6019
C -1.6238 -1.5520 -1.6019
C -1.6143 -1.5624 -1.5981
C -1.6142 -1.5566 -1.5949
C -1.6131 -1.5826 -1.5939
C -1.6155 -1.5885 -1.5937
C -1.6115 -1.5810 -1.5977
C -1.6090 -1.5763 -1.5974
C -1.6121 -1.5857 -1.6019
C -1.6083 -1.5870 -1.6051
C -1.6169 -1.5926 -1.6038
C -1.6152 -1.5963 -1.6041
C -1.6181 -1.5972 -1.6080
C -1.6231 -1.5883 -1.6025
C -1.6207 -1.5814 -1.6032
C -1.6304 -1.5915 -1.6008
C -1.6144 -1.5833 -1.6000
C -1.6185 -1.5802 -1.5976
C -1.6152 -1.5845 -1.6006
C -1.6101 -1.5878 -1.6036
C -1.6098 -1.5938 -1.6041
C -1.6046 -1.5849 -1.6045
C -1.6123 -1.5881 -1.6035
C -1.6163 -1.5923 -1.6046
C -1.6075 -1.5882 -1.6047
C -1.6162 -1.5814 -1.6003
C -1.6201 -1.5817 -1.5998
C -1.6117 -1.5774 -1.5997
C -1.6190 -1.5798 -1.5987
C -1.6179 -1.5736 -1.5996
C -1.6262 -1.5816 -1.5962
C -1.6280 -1.5782 -1.5930
C -1.6295 -1.5857 -1.5974
C -1.6288 -1.5878 -1.6003
C -1.6355 -1.5863 -1.5969
C -1.6365 -1.5843 -1.5958
C -1.6370 -1.5929 -1.5975
C -1.6353 -1.5946 -1.5971
C -1.6414 -1.5935 -1.5970
C -1.6350 -1.5969 -1.5997
C -1.6316 -1.5980 -1.6006
C -1.6374 -1.6005 -1.6011
C -1.6339 -1.5940 -1.5984
C -1.6278 -1.5938 -1.5980
C -1.6384 -1.5914 -1.5995
C -1.6392 -1.5835 -1.5945
C -1.6440 -1.5814 -1.5923
C -1.6360 -1.5837 -1.5952
C -1.6335 -1.5864 -1.5960
C -1.6396 -1.5822 -1.5934
C -1.6428 -1.5781 -1.5927
C -1.6431 -1.5876 -1.5941
C -1.6447 -1.5870 -1.5925
C -1.6467 -1.5900 -1.5948
C -1.6426 -1.5839 -1.5985
C -1.6494 -1.5909 -1.5837
C -1.6517 -1.5980 -1.6010
C -1.6394 -1.5917 -1.5985
C -1.6367 -1.5925 -1.6002
C -1.6352 -1.5782 -1.5925
C -1.6363 -1.5816 -1.5945
C -1.6300 -1.5697 -1.5902
C -1.6285 -1.5668 -1.5888
C -1.6278 -1.5707 -1.5948
C -1.6301 -1.5754 -1.5950
C -1.6260 -1.5688 -1.5991
C -1.6255 -1.5686 -1.5926
C -1.6251 -1.5627 -1.5909
C -1.6236 -1.5732 -1.5930
C -1.6242 -1.5769 -1.5940
C -1.6223 -1.5729 -1.5920
C -1.6241 -1.5699 -1.5907
C -1.6238 -1.5770 -1.5918
C -1.6212 -1.5808 -1.5831
C -1.6301 -1.5646 -1.5943
C -1.6272 -1.5583 -1.6026
C -1.6302 -1.5642 -1.5872
C -1.6351 -1.5625 -1.5956
C -1.6231 -1.5878 -1.6015
C -1.6197 -1.5947 -1.6028
C -1.6174 -1.5692 -1.5932
C -1.6131 -1.5691 -1.5960
C -1.6186 -1.5675 -1.5888
C -1.6235 -1.5690 -1.5863
C -1.6135 -1.5630 -1.5863
C -1.6123 -1.5628 -1.5879
C -1.6143 -1.5570 -1.5827
C -1.6164 -1.5597 -1.5806
C -1.6107 -1.5513 -1.5837
C -1.6177 -1.5540 -1.5795
C -1.6227 -1.5543 -1.5836
C -1.6256 -1.5568 -1.5895
C -1.6243 -1.5502 -1.5789
C -1.6279 -1.5499 -1.5810
C -1.6187 -1.5476 -1.5712
C -1.6169 -1.5432 -1.5642
C -1.6184 -1.5418 -1.5652
C -1.6117 -1.5406 -1.5573
C -1.6109 -1.5373 -1.5515
C -1.6088 -1.5426 -1.5577
C -1.6056 -1.5406 -1.5518
C -1.6101 -1.5472 -1.5651
C -1.6073 -1.5488 -1.5654
C -1.6148 -1.5497 -1.5718
C -1.6104 -1.5658 -1.5876
C -1.6129 -1.5677 -1.5904
C -1.6048 -1.5655 -1.5860
C -1.6034 -1.5627 -1.5848
C -1.6009 -1.5674 -1.5875
C -1.5964 -1.5644 -1.5878
C -1.6003 -1.5672 -1.5869
C -1.6030 -1.5717 -1.5891
C -1.6028 -1.5752 -1.5906
C -1.6044 -1.5735 -1.5895
138
REAL frame=146
C -1.6154 -1.5796 -1.5893
C -1.6177 -1.5786 -1.5900
C -1.6140 -1.5783 -1.5896
C -1.6178 -1.5809 -1.5882
C -1.6130 -1.5831 -1.5913
C -1.6090 -1.5840 -1.5905
C -1.6153 -1.5840 -1.5932
C -1.6132 -1.5826 -1.5896
C -1.6174 -1.5851 -1.5890
C -1.6089 -1.5795 -1.5903
C -1.6052 -1.5761 -1.5893
C -1.6104 -1.5780 -1.5915
C -1.6131 -1.5752 -1.5892
C -1.6059 -1.5738 -1.5934
C -1.6039 -1.5664 -1.5910
C -1.6018 -1.5782 -1.5934
C -1.6094 -1.5724 -1.5981
C -1.6077 -1.5803 -1.6027
C -1.6040 -1.5879 -1.6026
C -1.6137 -1.5778 -1.6062
C -1.6131 -1.5826 -1.6094
C -1.6185 -1.5680 -1.6057
C -1.6229 -1.5665 -1.6102
C -1.6211 -1.5609 -1.6024
C -1.6190 -1.5600 -1.6019
C -1.6240 -1.5519 -1.6019
C -1.6142 -1.5625 -1.5980
C -1.6146 -1.5560 -1.5949
C -1.6132 -1.5828 -1.5940
C -1.6154 -1.5884 -1.5936
C -1.6115 -1.5810 -1.5977
C -1.6087 -1.5765 -1.5975
C -1.6122 -1.5858 -1.6019
C -1.6084 -1.5868 -1.6053
C -1.6168 -1.5926 -1.6038
C -1.6152 -1.5966 -1.6042
C -1.6176 -1.5973 -1.6081
C -1.6232 -1.5882 -1.6025
C -1.6206 -1.5815 -1.6033
C -1.6304 -1.5915 -1.6008
C -1.6144 -1.5834 -1.6000
C -1.6185 -1.5802 -1.5975
C -1.6151 -1.5843 -1.6006
C -1.6100 -1.5879 -1.6036
C -1.6101 -1.5936 -1.6046
C -1.6046 -1.5854 -1.6042
C -1.6125 -1.5880 -1.6036
C -1.6166 -1.5930 -1.6044
C -1.6077 -1.5881 -1.6048
C -1.6162 -1.5813 -1.6003
C -1.6202 -1.5818 -1.5998
C -1.6117 -1.5774 -1.5995
C -1.6191 -1.5798 -1.5986
C -1.6181 -1.5735 -1.5995
C -1.6263 -1.5815 -1.5963
C -1.6280 -1.5782 -1.5930
C -1.6295 -1.5857 -1.5973
C -1.6293 -1.5878 -1.6007
C -1.6355 -1.5862 -1.5968
C -1.6365 -1.5843 -1.5957
C -1.6371 -1.5930 -1.5975
C -1.6349 -1.5946 -1.5969
C -1.6411 -1.5933 -1.5966
C -1.6351 -1.5968 -1.5997
C -1.6321 -1.5980 -1.6007
C -1.6375 -1.6003 -1.6007
C -1.6339 -1.5942 -1.5985
C -1.6279 -1.5937 -1.5980
C -1.6385 -1.5913 -1.5995
C -1.6393 -1.5836 -1.5946
C -1.6440 -1.5814 -1.5923
C -1.6361 -1.5837 -1.5952
C -1.6328 -1.5862 -1.5964
C -1.6396 -1.5822 -1.5933
C -1.6426 -1.5782 -1.5924
C -1.6431 -1.5876 -1.5941
C -1.6448 -1.5872 -1.5925
C -1.6465 -1.5901 -1.5946
C -1.6428 -1.5841 -1.5994
C -1.6496 -1.5907 -1.5839
C -1.6516 -1.5982 -1.6007
C -1.6394 -1.5916 -1.5985
C -1.6371 -1.5927 -1.6002
C -1.6352 -1.5781 -1.5924
C -1.6362 -1.5816 -1.5944
C -1.6300 -1.5697 -1.5903
C -1.6287 -1.5663 -1.5885
C -1.6277 -1.5708 -1.5948
C -1.6303 -1.5754 -1.5951
C -1.6258 -1.5692 -1.5992
C -1.6253 -1.5684 -1.5926
C -1.6251 -1.5626 -1.5909
C -1.6236 -1.5732 -1.5930
C -1.6245 -1.5766 -1.5938
C -1.6223 -1.5730 -1.5919
C -1.6246 -1.5698 -1.5907
C -1.6239 -1.5769 -1.5918
C -1.6212 -1.5807 -1.5833
C -1.6301 -1.5646 -1.5944
C -1.6273 -1.5582 -1.6022
C -1.6300 -1.5645 -1.5874
C -1.6352 -1.5622 -1.5958
C -1.6230 -1.5878 -1.6014
C -1.6196 -1.5943 -1.6030
C -1.6174 -1.5693 -1.5933
C -1.6131 -1.5691 -1.5960
C -1.6185 -1.5675 -1.5888
C -1.6237 -1.5689 -1.5865
C -1.6135 -1.5629 -1.5862
C -1.6122 -1.5627 -1.5877
C -1.6144 -1.5569 -1.5827
C -1.6159 -1.5597 -1.5802
C -1.6110 -1.5520 -1.5835
C -1.6177 -1.5540 -1.5796
C -1.6227 -1.5542 -1.5836
C -1.6258 -1.5569 -1.5895
C -1.6243 -1.5501 -1.5789
C -1.6281 -1.5501 -1.5816
C -1.6186 -1.5475 -1.5710
C -1.6169 -1.5433 -1.5642
C -1.6185 -1.5417 -1.5646
C -1.6118 -1.5407 -1.5572
C -1.6106 -1.5369 -1.5517
C -1.6089 -1.5426 -1.5577
C -1.6057 -1.5403 -1.5518
C -1.6101 -1.5473 -1.5650
C -1.6072 -1.5489 -1.5651
C -1.6147 -1.5496 -1.5717
C -1.6104 -1.5658 -1.5878
C -1.6131 -1.5677 -1.5904
C -1.6049 -1.5654 -1.5861
C -1.6037 -1.5624 -1.5849
C -1.6010 -1.5675 -1.5875
C -1.5964 -1.5646 -1.5876
C -1.6007 -1.5673 -1.5871
C -1.6029 -1.5718 -1.5890
C -1.6028 -1.5751 -1.5906
C -1.6044 -1.5736 -1.5894
138
REAL frame=147
C -1.6155 -1.5797 -1.5893
C -1.6176 -1.5780 -1.5908
C -1.6142 -1.5780 -1.5894
C -1.6178 -1.5811 -1.5885
C -1.6131 -1.5831 -1.5914
C -1.6090 -1.5840 -1.5906
C -1.6154 -1.5838 -1.5931
C -1.6132 -1.5824 -1.5897
C -1.6174 -1.5851 -1.5890
C -1.6090 -1.5796 -1.5903
C -1.6051 -1.5760 -1.5891
C -1.6103 -1.5780 -1.5915
C -1.6128 -1.5749 -1.5895
C -1.6060 -1.5737 -1.5934
C -1.6038 -1.5663 -1.5912
C -1.6019 -1.5783 -1.5931
C -1.6095 -1.5724 -1.5981
C -1.6077 -1.5804 -1.6026
C -1.6034 -1.5878 -1.6030
C -1.6137 -1.5777 -1.6061
C -1.6128 -1.5826 -1.6093
C -1.6185 -1.5680 -1.6059
C -1.6227 -1.5664 -1.6103
C -1.6218 -1.5612 -1.6018
C -1.6190 -1.5599 -1.6018
C -1.6240 -1.5519 -1.6016
C -1.6142 -1.5625 -1.5980
C -1.6151 -1.5556 -1.5948
C -1.6132 -1.5830 -1.5940
C -1.6152 -1.5883 -1.5935
C -1.6116 -1.5809 -1.5977
C -1.6085 -1.5764 -1.5978
C -1.6123 -1.5858 -1.6019
C -1.6083 -1.5866 -1.6055
C -1.6167 -1.5925 -1.6037
C -1.6151 -1.5967 -1.6043
C -1.6171 -1.5974 -1.6079
C -1.6232 -1.5882 -1.6025
C -1.6205 -1.5815 -1.6034
C -1.6305 -1.5914 -1.6007
C -1.6145 -1.5835 -1.6000
C -1.6184 -1.5803 -1.5975
C -1.6148 -1.5841 -1.6006
C -1.6099 -1.5881 -1.6036
C -1.6105 -1.5934 -1.6052
C -1.6046 -1.5858 -1.6039
C -1.6127 -1.5879 -1.6037
C -1.6169 -1.5936 -1.6043
C -1.6079 -1.5880 -1.6049
C -1.6162 -1.5813 -1.6002
C -1.6204 -1.5818 -1.5998
C -1.6118 -1.5773 -1.5995
C -1.6193 -1.5798 -1.5986
C -1.6183 -1.5736 -1.5991
C -1.6264 -1.5814 -1.5963
C -1.6280 -1.5783 -1.5930
C -1.6296 -1.5857 -1.5973
C -1.6297 -1.5877 -1.6010
C -1.6356 -1.5862 -1.5966
C -1.6368 -1.5843 -1.5957
C -1.6373 -1.5931 -1.5975
C -1.6348 -1.5946 -1.5968
C -1.6408 -1.5932 -1.5961
C -1.6352 -1.5967 -1.5997
C -1.6324 -1.5980 -1.6008
C -1.6376 -1.6000 -1.6004
C -1.6339 -1.5944 -1.5986
C -1.6281 -1.5935 -1.5980
C -1.6386 -1.5913 -1.5994
C -1.6392 -1.5837 -1.5947
C -1.6439 -1.5813 -1.5924
C -1.6363 -1.5838 -1.5952
C -1.6321 -1.5859 -1.5970
C -1.6395 -1.5822 -1.5931
C -1.6425 -1.5783 -1.5918
C -1.6431 -1.5875 -1.5941
C -1.6450 -1.5872 -1.5925
C -1.6463 -1.5902 -1.5945
C -1.6427 -1.5843 -1.5999
C -1.6498 -1.5903 -1.5841
C -1.6514 -1.5985 -1.6005
C -1.6394 -1.5915 -1.5984
C -1.6374 -1.5928 -1.6001
C -1.6352 -1.5780 -1.5923
C -1.6362 -1.5816 -1.5943
C -1.6300 -1.5698 -1.5905
C -1.6290 -1.5659 -1.5881
C -1.6277 -1.5709 -1.5948
C -1.6305 -1.5752 -1.5953
C -1.6255 -1.5697 -1.5993
C -1.6251 -1.5683 -1.5925
C -1.6251 -1.5626 -1.5909
C -1.6237 -1.5733 -1.5929
C -1.6247 -1.5764 -1.5937
C -1.6223 -1.5730 -1.5919
C -1.6248 -1.5699 -1.5907
C -1.6240 -1.5768 -1.5918
C -1.6211 -1.5806 -1.5834
C -1.6300 -1.5646 -1.5944
C -1.6276 -1.5579 -1.6016
C -1.6298 -1.5647 -1.5875
C -1.6354 -1.5619 -1.5961
C -1.6230 -1.5878 -1.6013
C -1.6193 -1.5940 -1.6030
C -1.6174 -1.5694 -1.5934
C -1.6131 -1.5690 -1.5961
C -1.6185 -1.5675 -1.5887
C -1.6236 -1.5688 -1.5866
C -1.6136 -1.5628 -1.5862
C -1.6118 -1.5624 -1.5873
C -1.6146 -1.5568 -1.5827
C -1.6155 -1.5597 -1.5799
C -1.6113 -1.5528 -1.5834
C -1.6177 -1.5539 -1.5797
C -1.6227 -1.5542 -1.5836
C -1.6259 -1.5570 -1.5895
C -1.6243 -1.5501 -1.5790
C -1.6283 -1.5502 -1.5818
C -1.6186 -1.5473 -1.5710
C -1.6168 -1.5434 -1.5642
C -1.6188 -1.5417 -1.5638
C -1.6119 -1.5407 -1.5571
C -1.6103 -1.5367 -1.5518
C -1.6090 -1.5426 -1.5577
C -1.6057 -1.5403 -1.5518
C -1.6101 -1.5474 -1.5648
C -1.6071 -1.5489 -1.5647
C -1.6147 -1.5495 -1.5716
C -1.6105 -1.5659 -1.5879
C -1.6132 -1.5677 -1.5904
C -1.6050 -1.5653 -1.5862
C -1.6037 -1.5623 -1.5850
C -1.6010 -1.5675 -1.5876
C -1.5964 -1.5649 -1.5877
C -1.6013 -1.5674 -1.5874
C -1.6028 -1.5720 -1.5890
C -1.6028 -1.5750 -1.5905
C -1.6044 -1.5736 -1.5893
138
REAL frame=148
C -1.6156 -1.5798 -1.5895
C -1.6173 -1.5774 -1.5913
C -1.6145 -1.5779 -1.5892
C -1.6176 -1.5811 -1.5885
C -1.6131 -1.5831 -1.5915
C -1.6091 -1.5839 -1.5910
C -1.6154 -1.5839 -1.5930
C -1.6131 -1.5822 -1.5899
C -1.6175 -1.5850 -1.5890
C -1.6090 -1.5797 -1.5902
C -1.6051 -1.5759 -1.5889
C -1.6103 -1.5780 -1.5915
C -1.6124 -1.5747 -1.5897
C -1.6060 -1.5737 -1.5934
C -1.6037 -1.5661 -1.5913
C -1.6021 -1.5784 -1.5929
C -1.6096 -1.5724 -1.5983
C -1.6078 -1.5804 -1.6025
C -1.6028 -1.5877 -1.6032
C -1.6137 -1.5777 -1.6060
C -1.6126 -1.5829 -1.6093
C -1.6185 -1.5680 -1.6061
C -1.6225 -1.5663 -1.6104
C -1.6224 -1.5616 -1.6013
C -1.6190 -1.5598 -1.6017
C -1.6239 -1.5520 -1.6014
C -1.6141 -1.5625 -1.5980
C -1.6155 -1.5555 -1.5948
C -1.6132 -1.5832 -1.5941
C -1.6151 -1.5883 -1.5935
C -1.6116 -1.5809 -1.5976
C -1.6084 -1.5760 -1.5982
C -1.6124 -1.5859 -1.6019
C -1.6082 -1.5863 -1.6056
C -1.6166 -1.5925 -1.6038
C -1.6149 -1.5966 -1.6044
C -1.6166 -1.5974 -1.6071
C -1.6232 -1.5882 -1.6026
C -1.6204 -1.5815 -1.6035
C -1.6305 -1.5913 -1.6007
C -1.6146 -1.5836 -1.6000
C -1.6184 -1.5803 -1.5975
C -1.6146 -1.5838 -1.6007
C -1.6099 -1.5882 -1.6036
C -1.6109 -1.5931 -1.6058
C -1.6046 -1.5860 -1.6035
C -1.6129 -1.5879 -1.6037
C -1.6171 -1.5940 -1.6041
C -1.6081 -1.5877 -1.6050
C -1.6163 -1.5812 -1.6001
C -1.6204 -1.5818 -1.5998
C -1.6118 -1.5771 -1.5996
C -1.6194 -1.5799 -1.5985
C -1.6185 -1.5740 -1.5983
C -1.6264 -1.5813 -1.5965
C -1.6279 -1.5784 -1.5930
C -1.6296 -1.5857 -1.5973
C -1.6299 -1.5877 -1.6013
C -1.6356 -1.5862 -1.5964
C -1.6373 -1.5843 -1.5958
C -1.6373 -1.5931 -1.5975
C -1.6349 -1.5947 -1.5968
C -1.6407 -1.5933 -1.5958
C -1.6353 -1.5967 -1.5997
C -1.6326 -1.5980 -1.6008
C -1.6377 -1.5996 -1.6002
C -1.6338 -1.5944 -1.5989
C -1.6282 -1.5935 -1.5980
C -1.6387 -1.5914 -1.5993
C -1.6392 -1.5838 -1.5948
C -1.6439 -1.5813 -1.5924
C -1.6364 -1.5839 -1.5951
C -1.6314 -1.5855 -1.5976
C -1.6395 -1.5823 -1.5930
C -1.6426 -1.5785 -1.5911
C -1.6429 -1.5874 -1.5942
C -1.6454 -1.5871 -1.5926
C -1.6463 -1.5903 -1.5943
C -1.6424 -1.5846 -1.6002
C -1.6501 -1.5897 -1.5844
C -1.6512 -1.5989 -1.6003
C -1.6394 -1.5915 -1.5984
C -1.6377 -1.5928 -1.6000
C -1.6352 -1.5778 -1.5923
C -1.6362 -1.5816 -1.5943
C -1.6300 -1.5700 -1.5906
C -1.6293 -1.5655 -1.5876
C -1.6277 -1.5709 -1.5948
C -1.6307 -1.5749 -1.5956
C -1.6253 -1.5701 -1.5994
C -1.6249 -1.5682 -1.5925
C -1.6251 -1.5625 -1.5909
C -1.6237 -1.5733 -1.5929
C -1.6248 -1.5763 -1.5936
C -1.6223 -1.5730 -1.5919
C -1.6246 -1.5701 -1.5905
C -1.6241 -1.5767 -1.5919
C -1.6209 -1.5805 -1.5835
C -1.6300 -1.5646 -1.5945
C -1.6281 -1.5578 -1.6009
C -1.6299 -1.5648 -1.5875
C -1.6354 -1.5616 -1.5964
C -1.6231 -1.5878 -1.6013
C -1.6188 -1.5937 -1.6027
C -1.6174 -1.5695 -1.5933
C -1.6131 -1.5690 -1.5962
C -1.6184 -1.5674 -1.5887
C -1.6233 -1.5687 -1.5863
C -1.6136 -1.5629 -1.5862
C -1.6114 -1.5620 -1.5867
C -1.6147 -1.5568 -1.5827
C -1.6152 -1.5597 -1.5797
C -1.6116 -1.5535 -1.5835
C -1.6176 -1.5538 -1.5797
C -1.6227 -1.5541 -1.5836
C -1.6260 -1.5571 -1.5894
C -1.6242 -1.5501 -1.5790
C -1.6285 -1.5502 -1.5816
C -1.6186 -1.5472 -1.5711
C -1.6167 -1.5434 -1.5642
C -1.6191 -1.5416 -1.5632
C -1.6121 -1.5406 -1.5570
C -1.6100 -1.5366 -1.5518
C -1.6092 -1.5426 -1.5577
C -1.6057 -1.5404 -1.5518
C -1.6101 -1.5475 -1.5646
C -1.6071 -1.5489 -1.5643
C -1.6147 -1.5495 -1.5716
C -1.6105 -1.5658 -1.5881
C -1.6134 -1.5677 -1.5905
C -1.6051 -1.5651 -1.5863
C -1.6035 -1.5625 -1.5851
C -1.6010 -1.5674 -1.5877
C -1.5965 -1.5653 -1.5879
C -1.6018 -1.5674 -1.5876
C -1.6027 -1.5721 -1.5890
C -1.6028 -1.5748 -1.5904
C -1.6044 -1.5737 -1.5892
138
REAL frame=149
C -1.6157 -1.5798 -1.5896
C -1.6169 -1.5769 -1.5914
C -1.6147 -1.5779 -1.5890
C -1.6175 -1.5811 -1.5883
C -1.6131 -1.5831 -1.5914
C -1.6094 -1.5839 -1.5916
C -1.6153 -1.5842 -1.5930
C -1.6131 -1.5822 -1.5900
C -1.6175 -1.5849 -1.5890
C -1.6090 -1.5797 -1.5902
C -1.6051 -1.5759 -1.5887
C -1.6102 -1.5780 -1.5915
C -1.6119 -1.5747 -1.5898
C -1.6060 -1.5737 -1.5934
C -1.6037 -1.5659 -1.5914
C -1.6024 -1.5785 -1.5928
C -1.6096 -1.5724 -1.5984
C -1.6078 -1.5803 -1.6025
C -1.6024 -1.5875 -1.6034
C -1.6137 -1.5778 -1.6059
C -1.6125 -1.5833 -1.6092
C -1.6186 -1.5680 -1.6063
C -1.6224 -1.5662 -1.6105
C -1.6229 -1.5620 -1.6009
C -1.6190 -1.5599 -1.6017
C -1.6237 -1.5521 -1.6011
C -1.6141 -1.5624 -1.5980
C -1.6159 -1.5556 -1.5947
C -1.6131 -1.5833 -1.5940
C -1.6151 -1.5883 -1.5934
C -1.6116 -1.5810 -1.5976
C -1.6085 -1.5756 -1.5987
C -1.6125 -1.5860 -1.6018
C -1.6080 -1.5862 -1.6057
C -1.6165 -1.5924 -1.6039
C -1.6146 -1.5963 -1.6045
C -1.6162 -1.5974 -1.6061
C -1.6232 -1.5882 -1.6027
C -1.6203 -1.5815 -1.6035
C -1.6305 -1.5913 -1.6006
C -1.6147 -1.5835 -1.6000
C -1.6184 -1.5803 -1.5974
C -1.6144 -1.5835 -1.6007
C -1.6099 -1.5883 -1.6036
C -1.6111 -1.5929 -1.6062
C -1.6046 -1.5862 -1.6033
C -1.6130 -1.5879 -1.6037
C -1.6173 -1.5942 -1.6039
C -1.6083 -1.5874 -1.6052
C -1.6163 -1.5811 -1.6001
C -1.6204 -1.5817 -1.5997
C -1.6119 -1.5768 -1.5998
C -1.6196 -1.5801 -1.5985
C -1.6187 -1.5745 -1.5974
C -1.6264 -1.5813 -1.5965
C -1.6279 -1.5785 -1.5931
C -1.6297 -1.5856 -1.5973
C -1.6299 -1.5877 -1.6016
C -1.6357 -1.5862 -1.5963
C -1.6379 -1.5843 -1.5957
C -1.6373 -1.5932 -1.5974
C -1.6352 -1.5949 -1.5970
C -1.6408 -1.5935 -1.5956
C -1.6354 -1.5966 -1.5996
C -1.6328 -1.5979 -1.6008
C -1.6378 -1.5991 -1.6001
C -1.6339 -1.5942 -1.5991
C -1.6284 -1.5934 -1.5980
C -1.6387 -1.5915 -1.5993
C -1.6391 -1.5838 -1.5949
C -1.6439 -1.5812 -1.5925
C -1.6365 -1.5840 -1.5951
C -1.6308 -1.5852 -1.5978
C -1.6394 -1.5822 -1.5929
C -1.6428 -1.5786 -1.5904
C -1.6427 -1.5874 -1.5942
C -1.6458 -1.5868 -1.5926
C -1.6463 -1.5904 -1.5942
C -1.6418 -1.5848 -1.6001
C -1.6504 -1.5890 -1.5846
C -1.6510 -1.5994 -1.6001
C -1.6394 -1.5915 -1.5983
C -1.6379 -1.5927 -1.6000
C -1.6352 -1.5777 -1.5923
C -1.6362 -1.5816 -1.5942
C -1.6300 -1.5701 -1.5906
C -1.6294 -1.5653 -1.5872
C -1.6276 -1.5709 -1.5948
C -1.6308 -1.5746 -1.5958
C -1.6251 -1.5705 -1.5995
C -1.6248 -1.5683 -1.5924
C -1.6251 -1.5625 -1.5908
C -1.6238 -1.5732 -1.5928
C -1.6248 -1.5762 -1.5936
C -1.6224 -1.5729 -1.5919
C -1.6240 -1.5704 -1.5902
C -1.6241 -1.5768 -1.5921
C -1.6209 -1.5804 -1.5835
C -1.6300 -1.5646 -1.5945
C -1.6285 -1.5576 -1.6002
C -1.6301 -1.5650 -1.5874
C -1.6354 -1.5615 -1.5966
C -1.6231 -1.5878 -1.6012
C -1.6183 -1.5933 -1.6021
C -1.6174 -1.5696 -1.5930
C -1.6130 -1.5690 -1.5964
C -1.6184 -1.5673 -1.5887
C -1.6229 -1.5686 -1.5860
C -1.6137 -1.5629 -1.5862
C -1.6110 -1.5616 -1.5860
C -1.6148 -1.5569 -1.5827
C -1.6153 -1.5598 -1.5796
C -1.6118 -1.5538 -1.5838
C -1.6175 -1.5537 -1.5798
C -1.6227 -1.5540 -1.5836
C -1.6260 -1.5572 -1.5894
C -1.6242 -1.5502 -1.5790
C -1.6287 -1.5501 -1.5812
C -1.6186 -1.5471 -1.5713
C -1.6166 -1.5433 -1.5641
C -1.6194 -1.5415 -1.5629
C -1.6122 -1.5406 -1.5570
C -1.6098 -1.5368 -1.5517
C -1.6093 -1.5427 -1.5577
C -1.6056 -1.5407 -1.5519
C -1.6101 -1.5475 -1.5644
C -1.6071 -1.5489 -1.5639
C -1.6147 -1.5494 -1.5716
C -1.6105 -1.5657 -1.5882
C -1.6136 -1.5677 -1.5905
C -1.6051 -1.5650 -1.5864
C -1.6032 -1.5629 -1.5852
C -1.6011 -1.5674 -1.5877
C -1.5967 -1.5658 -1.5882
C -1.6023 -1.5672 -1.5878
C -1.6026 -1.5723 -1.5891
C -1.6028 -1.5747 -1.5902
C -1.6044 -1.5738 -1.5891
138
REAL frame=150
C -1.6159 -1.5799 -1.5898
C -1.6167 -1.5767 -1.5913
C -1.6149 -1.5781 -1.5889
C -1.6174 -1.5808 -1.5880
C -1.6131 -1.5830 -1.5914
C -1.6097 -1.5838 -1.5922
C -1.6151 -1.5847 -1.5929
C -1.6130 -1.5821 -1.5901
C -1.6176 -1.5848 -1.5890
C -1.6090 -1.5797 -1.5902
C -1.6053 -1.5760 -1.5886
C -1.6102 -1.5781 -1.5916
C -1.6115 -1.5748 -1.5898
C -1.6061 -1.5737 -1.5934
C -1.6037 -1.5657 -1.5915
C -1.6028 -1.5786 -1.5928
C -1.6096 -1.5723 -1.5985
C -1.6079 -1.5802 -1.6024
C -1.6020 -1.5874 -1.6033
C -1.6137 -1.5779 -1.6059
C -1.6124 -1.5838 -1.6091
C -1.6186 -1.5679 -1.6063
C -1.6222 -1.5661 -1.6106
C -1.6234 -1.5622 -1.6008
C -1.6191 -1.5599 -1.6017
C -1.6234 -1.5523 -1.6009
C -1.6141 -1.5622 -1.5980
C -1.6162 -1.5560 -1.5947
C -1.6129 -1.5832 -1.5940
C -1.6150 -1.5884 -1.5935
C -1.6116 -1.5810 -1.5975
C -1.6086 -1.5753 -1.5991
C -1.6126 -1.5860 -1.6018
C -1.6080 -1.5862 -1.6057
C -1.6165 -1.5924 -1.6039
C -1.6144 -1.5961 -1.6046
C -1.6159 -1.5972 -1.6050
C -1.6231 -1.5882 -1.6028
C -1.6202 -1.5815 -1.6035
C -1.6306 -1.5912 -1.6006
C -1.6149 -1.5834 -1.5999
C -1.6183 -1.5803 -1.5974
C -1.6142 -1.5834 -1.6008
C -1.6099 -1.5883 -1.6037
C -1.6112 -1.5927 -1.6063
C -1.6046 -1.5862 -1.6033
C -1.6131 -1.5880 -1.6037
C -1.6174 -1.5940 -1.6038
C -1.6085 -1.5871 -1.6053
C -1.6164 -1.5811 -1.6001
C -1.6204 -1.5815 -1.5997
C -1.6120 -1.5764 -1.5999
C -1.6197 -1.5801 -1.5985
C -1.6190 -1.5750 -1.5965
C -1.6264 -1.5814 -1.5966
C -1.6279 -1.5786 -1.5931
C -1.6298 -1.5855 -1.5973
C -1.6297 -1.5877 -1.6018
C -1.6358 -1.5863 -1.5962
C -1.6385 -1.5844 -1.5957
C -1.6372 -1.5932 -1.5973
C -1.6357 -1.5951 -1.5974
C -1.6410 -1.5937 -1.5956
C -1.6355 -1.5966 -1.5996
C -1.6329 -1.5979 -1.6008
C -1.6379 -1.5986 -1.6001
C -1.6340 -1.5940 -1.5994
C -1.6284 -1.5934 -1.5980
C -1.6388 -1.5916 -1.5992
C -1.6391 -1.5838 -1.5948
C -1.6438 -1.5811 -1.5925
C -1.6366 -1.5842 -1.5950
C -1.6302 -1.5850 -1.5977
C -1.6394 -1.5822 -1.5929
C -1.6431 -1.5786 -1.5899
C -1.6424 -1.5874 -1.5942
C -1.6461 -1.5865 -1.5927
C -1.6464 -1.5904 -1.5942
C -1.6411 -1.5850 -1.5999
C -1.6505 -1.5885 -1.5847
C -1.6507 -1.5997 -1.6001
C -1.6394 -1.5916 -1.5982
C -1.6380 -1.5925 -1.5999
C -1.6351 -1.5775 -1.5923
C -1.6362 -1.5815 -1.5942
C -1.6301 -1.5703 -1.5907
C -1.6293 -1.5653 -1.5870
C -1.6276 -1.5709 -1.5948
C -1.6308 -1.5745 -1.5959
C -1.6251 -1.5706 -1.5996
C -1.6248 -1.5684 -1.5924
C -1.6251 -1.5624 -1.5908
C -1.6237 -1.5731 -1.5928
C -1.6247 -1.5762 -1.5936
C -1.6225 -1.5728 -1.5919
C -1.6232 -1.5708 -1.5899
C -1.6241 -1.5768 -1.5923
C -1.6208 -1.5803 -1.5835
C -1.6299 -1.5645 -1.5945
C -1.6288 -1.5575 -1.5996
C -1.6304 -1.5651 -1.5873
C -1.6354 -1.5615 -1.5969
C -1.6232 -1.5878 -1.6011
C -1.6178 -1.5930 -1.6016
C -1.6174 -1.5698 -1.5927
C -1.6130 -1.5690 -1.5965
C -1.6183 -1.5673 -1.5886
C -1.6224 -1.5685 -1.5856
C -1.6137 -1.5630 -1.5863
C -1.6107 -1.5612 -1.5854
C -1.6150 -1.5570 -1.5827
C -1.6157 -1.5598 -1.5797
C -1.6119 -1.5539 -1.5842
C -1.6174 -1.5535 -1.5798
C -1.6227 -1.5539 -1.5836
C -1.6260 -1.5571 -1.5894
C -1.6241 -1.5503 -1.5790
C -1.6288 -1.5499 -1.5806
C -1.6185 -1.5470 -1.5715
C -1.6165 -1.5431 -1.5640
C -1.6197 -1.5414 -1.5629
C -1.6123 -1.5406 -1.5570
C -1.6098 -1.5371 -1.5515
C -1.6094 -1.5428 -1.5575
C -1.6056 -1.5411 -1.5519
C -1.6101 -1.5475 -1.5642
C -1.6072 -1.5489 -1.5636
C -1.6147 -1.5494 -1.5716
C -1.6106 -1.5656 -1.5883
C -1.6137 -1.5678 -1.5906
C -1.6052 -1.5648 -1.5865
C -1.6029 -1.5632 -1.5852
C -1.6011 -1.5673 -1.5878
C -1.5969 -1.5662 -1.5885
C -1.6027 -1.5670 -1.5880
C -1.6025 -1.5724 -1.5893
C -1.6028 -1.5747 -1.5900
C -1.6045 -1.5739 -1.5890
138
REAL frame=151
C -1.6170 -1.5810 -1.5911
C -1.6176 -1.5778 -1.5919
C -1.6159 -1.5794 -1.5901
C -1.6185 -1.5816 -1.5887
C -1.6141 -1.5840 -1.5925
C -1.6109 -1.5848 -1.5938
C -1.6159 -1.5862 -1.5941
C -1.6141 -1.5832 -1.5913
C -1.6186 -1.5858 -1.5901
C -1.6100 -1.5806 -1.5913
C -1.6064 -1.5772 -1.5896
C -1.6112 -1.5792 -1.5927
C -1.6123 -1.5760 -1.5908
C -1.6071 -1.5747 -1.5946
C -1.6048 -1.5667 -1.5925
C -1.6042 -1.5796 -1.5940
C -1.6106 -1.5733 -1.5996
C -1.6091 -1.5812 -1.6035
C -1.6029 -1.5885 -1.6041
C -1.6147 -1.5791 -1.6069
C -1.6134 -1.5854 -1.6100
C -1.6197 -1.5689 -1.6074
C -1.6232 -1.5671 -1.6117
C -1.6250 -1.5634 -1.6020
C -1.6202 -1.5611 -1.6028
C -1.6242 -1.5536 -1.6019
C -1.6153 -1.5632 -1.5991
C -1.6173 -1.5575 -1.5958
C -1.6138 -1.5842 -1.5950
C -1.6161 -1.5896 -1.5946
C -1.6127 -1.5822 -1.5986
C -1.6098 -1.5762 -1.6005
C -1.6137 -1.5872 -1.6029
C -1.6090 -1.5874 -1.6067
C -1.6174 -1.5935 -1.6051
C -1.6152 -1.5971 -1.6058
C -1.6169 -1.5981 -1.6052
C -1.6241 -1.5892 -1.6039
C -1.6211 -1.5826 -1.6046
C -1.6316 -1.5923 -1.6017
C -1.6161 -1.5844 -1.6010
C -1.6193 -1.5815 -1.5984
C -1.6151 -1.5845 -1.6019
C -1.6110 -1.5893 -1.6048
C -1.6122 -1.5938 -1.6071
C -1.6057 -1.5872 -1.6046
C -1.6142 -1.5892 -1.6047
C -1.6185 -1.5947 -1.6047
C -1.6098 -1.5880 -1.6065
C -1.6176 -1.5821 -1.6011
C -1.6214 -1.5824 -1.6005
C -1.6132 -1.5772 -1.6010
C -1.6209 -1.5813 -1.5995
C -1.6203 -1.5767 -1.5968
C -1.6275 -1.5827 -1.5976
C -1.6289 -1.5798 -1.5942
C -1.6309 -1.5866 -1.5985
C -1.6306 -1.5888 -1.6029
C -1.6369 -1.5876 -1.5973
C -1.6400 -1.5857 -1.5967
C -1.6382 -1.5943 -1.5982
C -1.6373 -1.5964 -1.5988
C -1.6424 -1.5952 -1.5967
C -1.6367 -1.5976 -1.6007
C -1.6341 -1.5989 -1.6018
C -1.6390 -1.5994 -1.6013
C -1.6352 -1.5949 -1.6005
C -1.6295 -1.5945 -1.5991
C -1.6399 -1.5929 -1.6002
C -1.6400 -1.5849 -1.5958
C -1.6449 -1.5822 -1.5938
C -1.6377 -1.5854 -1.5961
C -1.6308 -1.5862 -1.5983
C -1.6404 -1.5832 -1.5939
C -1.6445 -1.5797 -1.5909
C -1.6432 -1.5885 -1.5953
C -1.6470 -1.5872 -1.5938
C -1.6475 -1.5915 -1.5953
C -1.6414 -1.5864 -1.6007
C -1.6515 -1.5891 -1.5857
C -1.6516 -1.6010 -1.6012
C -1.6404 -1.5928 -1.5993
C -1.6390 -1.5935 -1.6009
C -1.6361 -1.5787 -1.5934
C -1.6372 -1.5825 -1.5954
C -1.6312 -1.5715 -1.5919
C -1.6300 -1.5664 -1.5880
C -1.6286 -1.5720 -1.5959
C -1.6317 -1.5757 -1.5970
C -1.6262 -1.5717 -1.6009
C -1.6259 -1.5697 -1.5936
C -1.6261 -1.5635 -1.5919
C -1.6247 -1.5740 -1.5939
C -1.6255 -1.5773 -1.5949
C -1.6236 -1.5738 -1.5931
C -1.6237 -1.5723 -1.5910
C -1.6250 -1.5779 -1.5936
C -1.6218 -1.5814 -1.5847
C -1.6310 -1.5655 -1.5956
C -1.6299 -1.5585 -1.6005
C -1.6318 -1.5664 -1.5883
C -1.6362 -1.5627 -1.5982
C -1.6243 -1.5889 -1.6022
C -1.6185 -1.5938 -1.6023
C -1.6185 -1.5711 -1.5936
C -1.6141 -1.5700 -1.5977
C -1.6193 -1.5683 -1.5897
C -1.6230 -1.5695 -1.5864
C -1.6147 -1.5642 -1.5875
C -1.6116 -1.5622 -1.5863
C -1.6162 -1.5583 -1.5838
C -1.6173 -1.5610 -1.5810
C -1.6130 -1.5547 -1.5857
C -1.6184 -1.5546 -1.5809
C -1.6238 -1.5550 -1.5848
C -1.6271 -1.5580 -1.5906
C -1.6251 -1.5515 -1.5801
C -1.6300 -1.5510 -1.5812
C -1.6196 -1.5481 -1.5729
C -1.6175 -1.5441 -1.5651
C -1.6209 -1.5425 -1.5643
C -1.6134 -1.5418 -1.5582
C -1.6109 -1.5387 -1.5524
C -1.6105 -1.5441 -1.5586
C -1.6066 -1.5426 -1.5530
C -1.6111 -1.5485 -1.5653
C -1.6083 -1.5500 -1.5646
C -1.6158 -1.5505 -1.5729
C -1.6118 -1.5665 -1.5894
C -1.6149 -1.5689 -1.5918
C -1.6062 -1.5659 -1.5878
C -1.6038 -1.5645 -1.5862
C -1.6023 -1.5683 -1.5890
C -1.5982 -1.5677 -1.5898
C -1.6040 -1.5677 -1.5891
C -1.6034 -1.5736 -1.5905
C -1.6039 -1.5757 -1.5910
C -1.6055 -1.5751 -1.5900
138
REAL frame=152
C -1.6171 -1.5810 -1.5912
C -1.6177 -1.5781 -1.5914
C -1.6157 -1.5798 -1.5905
C -1.6187 -1.5814 -1.5885
C -1.6141 -1.5839 -1.5925
C -1.6110 -1.5847 -1.5941
C -1.6157 -1.5866 -1.5941
C -1.6142 -1.5833 -1.5912
C -1.6186 -1.5857 -1.5901
C -1.6100 -1.5805 -1.5913
C -1.6066 -1.5773 -1.5897
C -1.6112 -1.5792 -1.5927
C -1.6122 -1.5762 -1.5905
C -1.6072 -1.5748 -1.5946
C -1.6049 -1.5667 -1.5925
C -1.6044 -1.5796 -1.5943
C -1.6105 -1.5732 -1.5996
C -1.6092 -1.5811 -1.6034
C -1.6030 -1.5885 -1.6037
C -1.6146 -1.5793 -1.6069
C -1.6134 -1.5859 -1.6100
C -1.6197 -1.5689 -1.6073
C -1.6231 -1.5670 -1.6117
C -1.6253 -1.5632 -1.6024
C -1.6202 -1.5611 -1.6029
C -1.6239 -1.5537 -1.6020
C -1.6154 -1.5631 -1.5992
C -1.6173 -1.5578 -1.5958
C -1.6136 -1.5840 -1.5949
C -1.6161 -1.5898 -1.5946
C -1.6128 -1.5822 -1.5986
C -1.6099 -1.5762 -1.6005
C -1.6137 -1.5872 -1.6029
C -1.6091 -1.5877 -1.6065
C -1.6174 -1.5935 -1.6051
C -1.6151 -1.5972 -1.6060
C -1.6170 -1.5979 -1.6047
C -1.6240 -1.5892 -1.6039
C -1.6210 -1.5826 -1.6045
C -1.6316 -1.5923 -1.6017
C -1.6162 -1.5842 -1.6010
C -1.6192 -1.5816 -1.5983
C -1.6150 -1.5845 -1.6020
C -1.6110 -1.5891 -1.6049
C -1.6121 -1.5938 -1.6066
C -1.6059 -1.5871 -1.6050
C -1.6143 -1.5893 -1.6046
C -1.6184 -1.5942 -1.6046
C -1.6100 -1.5879 -1.6065
C -1.6177 -1.5821 -1.6012
C -1.6215 -1.5823 -1.6004
C -1.6133 -1.5769 -1.6010
C -1.6209 -1.5813 -1.5995
C -1.6205 -1.5769 -1.5964
C -1.6275 -1.5828 -1.5976
C -1.6289 -1.5798 -1.5943
C -1.6310 -1.5865 -1.5986
C -1.6304 -1.5887 -1.6029
C -1.6371 -1.5877 -1.5974
C -1.6403 -1.5858 -1.5967
C -1.6381 -1.5943 -1.5981
C -1.6376 -1.5966 -1.5990
C -1.6427 -1.5955 -1.5969
C -1.6368 -1.5975 -1.6007
C -1.6342 -1.5988 -1.6018
C -1.6391 -1.5991 -1.6015
C -1.6355 -1.5948 -1.6006
C -1.6295 -1.5945 -1.5993
C -1.6399 -1.5930 -1.6001
C -1.6400 -1.5848 -1.5956
C -1.6448 -1.5822 -1.5938
C -1.6378 -1.5855 -1.5961
C -1.6305 -1.5865 -1.5977
C -1.6404 -1.5831 -1.5939
C -1.6448 -1.5795 -1.5912
C -1.6431 -1.5886 -1.5953
C -1.6466 -1.5868 -1.5937
C -1.6476 -1.5915 -1.5954
C -1.6410 -1.5865 -1.6003
C -1.6514 -1.5888 -1.5855
C -1.6517 -1.6008 -1.6014
C -1.6404 -1.5929 -1.5991
C -1.6390 -1.5934 -1.6008
C -1.6361 -1.5787 -1.5933
C -1.6372 -1.5824 -1.5954
C -1.6312 -1.5717 -1.5919
C -1.6295 -1.5666 -1.5880
C -1.6286 -1.5720 -1.5960
C -1.6315 -1.5759 -1.5969
C -1.6263 -1.5714 -1.6010
C -1.6260 -1.5699 -1.5936
C -1.6261 -1.5634 -1.5919
C -1.6247 -1.5738 -1.5939
C -1.6251 -1.5773 -1.5951
C -1.6236 -1.5737 -1.5932
C -1.6234 -1.5725 -1.5909
C -1.6250 -1.5779 -1.5938
C -1.6219 -1.5814 -1.5848
C -1.6310 -1.5654 -1.5956
C -1.6297 -1.5584 -1.6004
C -1.6322 -1.5667 -1.5881
C -1.6361 -1.5629 -1.5983
C -1.6243 -1.5889 -1.6022
C -1.6183 -1.5936 -1.6021
C -1.6187 -1.5712 -1.5935
C -1.6141 -1.5700 -1.5978
C -1.6192 -1.5682 -1.5896
C -1.6227 -1.5693 -1.5863
C -1.6147 -1.5642 -1.5875
C -1.6116 -1.5622 -1.5863
C -1.6163 -1.5584 -1.5837
C -1.6181 -1.5610 -1.5813
C -1.6130 -1.5543 -1.5859
C -1.6183 -1.5545 -1.5809
C -1.6239 -1.5550 -1.5849
C -1.6271 -1.5577 -1.5907
C -1.6250 -1.5515 -1.5800
C -1.6300 -1.5509 -1.5808
C -1.6196 -1.5481 -1.5730
C -1.6175 -1.5439 -1.5651
C -1.6209 -1.5423 -1.5646
C -1.6135 -1.5419 -1.5582
C -1.6112 -1.5390 -1.5522
C -1.6106 -1.5441 -1.5583
C -1.6066 -1.5429 -1.5529
C -1.6111 -1.5484 -1.5652
C -1.6084 -1.5499 -1.5646
C -1.6158 -1.5504 -1.5729
C -1.6120 -1.5664 -1.5895
C -1.6150 -1.5689 -1.5918
C -1.6062 -1.5658 -1.5880
C -1.6037 -1.5645 -1.5861
C -1.6024 -1.5682 -1.5892
C -1.5984 -1.5678 -1.5898
C -1.6041 -1.5674 -1.5890
C -1.6034 -1.5737 -1.5906
C -1.6039 -1.5756 -1.5908
C -1.6055 -1.5751 -1.5899
138
REAL frame=153
C -1.6171 -1.5810 -1.5912
C -1.6178 -1.5785 -1.5909
C -1.6155 -1.5803 -1.5910
C -1.6190 -1.5813 -1.5884
C -1.6141 -1.5839 -1.5926
C -1.6109 -1.5846 -1.5941
C -1.6156 -1.5868 -1.5942
C -1.6144 -1.5834 -1.5912
C -1.6186 -1.5856 -1.5901
C -1.6099 -1.5803 -1.5914
C -1.6066 -1.5774 -1.5899
C -1.6111 -1.5791 -1.5927
C -1.6123 -1.5764 -1.5902
C -1.6072 -1.5748 -1.5947
C -1.6050 -1.5669 -1.5924
C -1.6044 -1.5794 -1.5946
C -1.6104 -1.5731 -1.5995
C -1.6092 -1.5810 -1.6034
C -1.6033 -1.5886 -1.6033
C -1.6144 -1.5794 -1.6070
C -1.6134 -1.5862 -1.6100
C -1.6196 -1.5688 -1.6073
C -1.6230 -1.5670 -1.6116
C -1.6255 -1.5629 -1.6030
C -1.6202 -1.5611 -1.6031
C -1.6236 -1.5537 -1.6022
C -1.6156 -1.5631 -1.5993
C -1.6170 -1.5578 -1.5959
C -1.6134 -1.5839 -1.5949
C -1.6160 -1.5899 -1.5947
C -1.6129 -1.5823 -1.5986
C -1.6099 -1.5764 -1.6004
C -1.6136 -1.5872 -1.6029
C -1.6093 -1.5880 -1.6064
C -1.6174 -1.5935 -1.6051
C -1.6151 -1.5976 -1.6061
C -1.6173 -1.5978 -1.6046
C -1.6239 -1.5891 -1.6039
C -1.6210 -1.5826 -1.6045
C -1.6316 -1.5923 -1.6017
C -1.6164 -1.5840 -1.6010
C -1.6191 -1.5816 -1.5982
C -1.6150 -1.5847 -1.6020
C -1.6111 -1.5889 -1.6049
C -1.6118 -1.5939 -1.6058
C -1.6060 -1.5868 -1.6056
C -1.6143 -1.5894 -1.6045
C -1.6183 -1.5937 -1.6045
C -1.6103 -1.5880 -1.6065
C -1.6178 -1.5821 -1.6012
C -1.6217 -1.5822 -1.6002
C -1.6134 -1.5767 -1.6010
C -1.6209 -1.5813 -1.5994
C -1.6205 -1.5769 -1.5964
C -1.6275 -1.5830 -1.5975
C -1.6288 -1.5799 -1.5943
C -1.6310 -1.5864 -1.5987
C -1.6304 -1.5887 -1.6027
C -1.6372 -1.5878 -1.5974
C -1.6403 -1.5859 -1.5968
C -1.6382 -1.5944 -1.5981
C -1.6377 -1.5967 -1.5991
C -1.6428 -1.5957 -1.5969
C -1.6369 -1.5973 -1.6008
C -1.6344 -1.5987 -1.6018
C -1.6391 -1.5991 -1.6016
C -1.6357 -1.5948 -1.6006
C -1.6295 -1.5945 -1.5994
C -1.6400 -1.5930 -1.6000
C -1.6399 -1.5848 -1.5954
C -1.6448 -1.5821 -1.5939
C -1.6378 -1.5855 -1.5960
C -1.6305 -1.5868 -1.5970
C -1.6403 -1.5830 -1.5939
C -1.6449 -1.5791 -1.5916
C -1.6431 -1.5887 -1.5951
C -1.6460 -1.5865 -1.5936
C -1.6477 -1.5914 -1.5955
C -1.6409 -1.5865 -1.6000
C -1.6511 -1.5887 -1.5852
C -1.6519 -1.6004 -1.6015
C -1.6403 -1.5931 -1.5990
C -1.6389 -1.5934 -1.6007
C -1.6361 -1.5787 -1.5933
C -1.6372 -1.5823 -1.5955
C -1.6312 -1.5718 -1.5919
C -1.6291 -1.5669 -1.5882
C -1.6286 -1.5721 -1.5960
C -1.6313 -1.5762 -1.5967
C -1.6265 -1.5710 -1.6010
C -1.6260 -1.5699 -1.5936
C -1.6261 -1.5634 -1.5919
C -1.6246 -1.5737 -1.5939
C -1.6247 -1.5773 -1.5953
C -1.6235 -1.5737 -1.5932
C -1.6236 -1.5724 -1.5909
C -1.6249 -1.5778 -1.5938
C -1.6219 -1.5815 -1.5850
C -1.6310 -1.5653 -1.5956
C -1.6294 -1.5583 -1.6006
C -1.6325 -1.5670 -1.5880
C -1.6360 -1.5631 -1.5985
C -1.6244 -1.5889 -1.6021
C -1.6185 -1.5934 -1.6024
C -1.6188 -1.5713 -1.5935
C -1.6141 -1.5699 -1.5977
C -1.6191 -1.5681 -1.5894
C -1.6226 -1.5689 -1.5862
C -1.6146 -1.5642 -1.5876
C -1.6117 -1.5624 -1.5867
C -1.6165 -1.5586 -1.5837
C -1.6189 -1.5611 -1.5816
C -1.6130 -1.5538 -1.5859
C -1.6182 -1.5545 -1.5808
C -1.6239 -1.5549 -1.5850
C -1.6272 -1.5573 -1.5908
C -1.6249 -1.5515 -1.5800
C -1.6300 -1.5509 -1.5807
C -1.6195 -1.5482 -1.5730
C -1.6176 -1.5437 -1.5652
C -1.6208 -1.5421 -1.5650
C -1.6135 -1.5420 -1.5582
C -1.6116 -1.5392 -1.5520
C -1.6106 -1.5442 -1.5581
C -1.6066 -1.5430 -1.5528
C -1.6111 -1.5483 -1.5653
C -1.6085 -1.5498 -1.5647
C -1.6158 -1.5504 -1.5728
C -1.6121 -1.5664 -1.5895
C -1.6150 -1.5689 -1.5919
C -1.6061 -1.5658 -1.5881
C -1.6037 -1.5643 -1.5859
C -1.6026 -1.5681 -1.5893
C -1.5985 -1.5678 -1.5896
C -1.6040 -1.5670 -1.5888
C -1.6034 -1.5739 -1.5906
C -1.6039 -1.5755 -1.5906
C -1.6055 -1.5752 -1.5899
138
REAL frame=154
C -1.6171 -1.5810 -1.5912
C -1.6180 -1.5788 -1.5906
C -1.6153 -1.5807 -1.5917
C -1.6193 -1.5815 -1.5887
C -1.6142 -1.5839 -1.5928
C -1.6107 -1.5845 -1.5938
C -1.6156 -1.5868 -1.5944
C -1.6146 -1.5835 -1.5912
C -1.6185 -1.5855 -1.5901
C -1.6099 -1.5802 -1.5914
C -1.6065 -1.5772 -1.5903
C -1.6109 -1.5791 -1.5927
C -1.6125 -1.5765 -1.5900
C -1.6071 -1.5748 -1.5948
C -1.6051 -1.5673 -1.5924
C -1.6044 -1.5793 -1.5950
C -1.6103 -1.5729 -1.5994
C -1.6093 -1.5810 -1.6034
C -1.6039 -1.5887 -1.6030
C -1.6143 -1.5794 -1.6071
C -1.6133 -1.5863 -1.6101
C -1.6196 -1.5688 -1.6073
C -1.6229 -1.5669 -1.6115
C -1.6257 -1.5625 -1.6037
C -1.6202 -1.5611 -1.6032
C -1.6234 -1.5536 -1.6026
C -1.6157 -1.5632 -1.5994
C -1.6167 -1.5576 -1.5961
C -1.6134 -1.5839 -1.5949
C -1.6160 -1.5900 -1.5947
C -1.6130 -1.5823 -1.5986
C -1.6099 -1.5767 -1.6000
C -1.6135 -1.5872 -1.6029
C -1.6095 -1.5883 -1.6062
C -1.6175 -1.5935 -1.6050
C -1.6153 -1.5981 -1.6061
C -1.6177 -1.5979 -1.6049
C -1.6238 -1.5889 -1.6038
C -1.6210 -1.5826 -1.6045
C -1.6315 -1.5924 -1.6017
C -1.6165 -1.5838 -1.6010
C -1.6191 -1.5816 -1.5981
C -1.6151 -1.5849 -1.6021
C -1.6112 -1.5887 -1.6049
C -1.6114 -1.5940 -1.6051
C -1.6061 -1.5865 -1.6063
C -1.6143 -1.5893 -1.6044
C -1.6183 -1.5932 -1.6043
C -1.6104 -1.5883 -1.6064
C -1.6179 -1.5821 -1.6012
C -1.6220 -1.5822 -1.6001
C -1.6135 -1.5767 -1.6009
C -1.6209 -1.5813 -1.5994
C -1.6204 -1.5766 -1.5968
C -1.6276 -1.5831 -1.5974
C -1.6288 -1.5800 -1.5944
C -1.6310 -1.5864 -1.5989
C -1.6304 -1.5886 -1.6023
C -1.6373 -1.5879 -1.5974
C -1.6401 -1.5861 -1.5968
C -1.6383 -1.5945 -1.5981
C -1.6375 -1.5968 -1.5988
C -1.6429 -1.5957 -1.5968
C -1.6369 -1.5971 -1.6008
C -1.6346 -1.5985 -1.6020
C -1.6392 -1.5992 -1.6017
C -1.6360 -1.5950 -1.6007
C -1.6295 -1.5945 -1.5995
C -1.6400 -1.5929 -1.5999
C -1.6398 -1.5848 -1.5952
C -1.6448 -1.5820 -1.5940
C -1.6377 -1.5855 -1.5959
C -1.6307 -1.5871 -1.5966
C -1.6403 -1.5828 -1.5939
C -1.6449 -1.5788 -1.5923
C -1.6431 -1.5888 -1.5950
C -1.6452 -1.5863 -1.5935
C -1.6476 -1.5914 -1.5956
C -1.6411 -1.5863 -1.5998
C -1.6508 -1.5887 -1.5849
C -1.6523 -1.5998 -1.6017
C -1.6403 -1.5932 -1.5989
C -1.6387 -1.5935 -1.6005
C -1.6361 -1.5788 -1.5933
C -1.6372 -1.5821 -1.5955
C -1.6312 -1.5719 -1.5919
C -1.6289 -1.5671 -1.5884
C -1.6286 -1.5721 -1.5960
C -1.6310 -1.5765 -1.5965
C -1.6268 -1.5705 -1.6009
C -1.6260 -1.5698 -1.5936
C -1.6261 -1.5634 -1.5919
C -1.6246 -1.5736 -1.5938
C -1.6243 -1.5772 -1.5956
C -1.6234 -1.5737 -1.5932
C -1.6240 -1.5722 -1.5909
C -1.6248 -1.5778 -1.5938
C -1.6219 -1.5815 -1.5852
C -1.6310 -1.5653 -1.5955
C -1.6290 -1.5583 -1.6010
C -1.6328 -1.5672 -1.5880
C -1.6359 -1.5632 -1.5985
C -1.6244 -1.5889 -1.6021
C -1.6188 -1.5934 -1.6029
C -1.6189 -1.5714 -1.5936
C -1.6142 -1.5698 -1.5976
C -1.6190 -1.5680 -1.5892
C -1.6226 -1.5685 -1.5863
C -1.6146 -1.5641 -1.5876
C -1.6119 -1.5628 -1.5874
C -1.6166 -1.5587 -1.5837
C -1.6195 -1.5611 -1.5820
C -1.6130 -1.5535 -1.5856
C -1.6181 -1.5546 -1.5808
C -1.6239 -1.5549 -1.5851
C -1.6273 -1.5571 -1.5909
C -1.6248 -1.5514 -1.5799
C -1.6300 -1.5509 -1.5809
C -1.6194 -1.5482 -1.5728
C -1.6176 -1.5436 -1.5654
C -1.6206 -1.5420 -1.5653
C -1.6135 -1.5421 -1.5581
C -1.6121 -1.5393 -1.5520
C -1.6107 -1.5442 -1.5579
C -1.6068 -1.5429 -1.5525
C -1.6112 -1.5482 -1.5654
C -1.6085 -1.5497 -1.5650
C -1.6159 -1.5504 -1.5728
C -1.6122 -1.5664 -1.5895
C -1.6151 -1.5689 -1.5919
C -1.6061 -1.5658 -1.5883
C -1.6038 -1.5640 -1.5857
C -1.6028 -1.5681 -1.5894
C -1.5985 -1.5676 -1.5893
C -1.6039 -1.5667 -1.5886
C -1.6035 -1.5741 -1.5906
C -1.6039 -1.5755 -1.5905
C -1.6055 -1.5752 -1.5898
138
REAL frame=155
C -1.6171 -1.5810 -1.5911
C -1.6182 -1.5790 -1.5906
C -1.6151 -1.5810 -1.5922
C -1.6196 -1.5818 -1.5892
C -1.6143 -1.5840 -1.5929
C -1.6103 -1.5843 -1.5934
C -1.6158 -1.5867 -1.5946
C -1.6147 -1.5835 -1.5912
C -1.6185 -1.5855 -1.5901
C -1.6100 -1.5801 -1.5914
C -1.6064 -1.5771 -1.5907
C -1.6108 -1.5789 -1.5927
C -1.6127 -1.5765 -1.5899
C -1.6071 -1.5748 -1.5949
C -1.6051 -1.5678 -1.5924
C -1.6042 -1.5791 -1.5954
C -1.6101 -1.5728 -1.5993
C -1.6093 -1.5810 -1.6033
C -1.6046 -1.5888 -1.6028
C -1.6142 -1.5793 -1.6073
C -1.6133 -1.5862 -1.6102
C -1.6196 -1.5689 -1.6073
C -1.6228 -1.5669 -1.6114
C -1.6257 -1.5621 -1.6045
C -1.6202 -1.5611 -1.6034
C -1.6233 -1.5534 -1.6031
C -1.6159 -1.5632 -1.5994
C -1.6163 -1.5572 -1.5962
C -1.6134 -1.5839 -1.5951
C -1.6159 -1.5901 -1.5946
C -1.6130 -1.5822 -1.5986
C -1.6100 -1.5770 -1.5995
C -1.6135 -1.5871 -1.6029
C -1.6097 -1.5884 -1.6061
C -1.6176 -1.5935 -1.6049
C -1.6156 -1.5986 -1.6060
C -1.6180 -1.5981 -1.6056
C -1.6237 -1.5888 -1.6038
C -1.6210 -1.5825 -1.6044
C -1.6314 -1.5925 -1.6017
C -1.6166 -1.5838 -1.6010
C -1.6190 -1.5816 -1.5980
C -1.6152 -1.5851 -1.6021
C -1.6112 -1.5886 -1.6049
C -1.6111 -1.5940 -1.6046
C -1.6062 -1.5860 -1.6068
C -1.6143 -1.5891 -1.6044
C -1.6182 -1.5930 -1.6041
C -1.6105 -1.5887 -1.6062
C -1.6180 -1.5820 -1.6012
C -1.6225 -1.5823 -1.6000
C -1.6136 -1.5767 -1.6009
C -1.6208 -1.5814 -1.5994
C -1.6202 -1.5760 -1.5975
C -1.6276 -1.5831 -1.5973
C -1.6288 -1.5801 -1.5945
C -1.6311 -1.5864 -1.5990
C -1.6304 -1.5886 -1.6018
C -1.6373 -1.5880 -1.5973
C -1.6399 -1.5862 -1.5969
C -1.6385 -1.5947 -1.5981
C -1.6371 -1.5968 -1.5985
C -1.6428 -1.5956 -1.5966
C -1.6370 -1.5969 -1.6008
C -1.6348 -1.5982 -1.6022
C -1.6394 -1.5994 -1.6017
C -1.6361 -1.5953 -1.6007
C -1.6295 -1.5945 -1.5996
C -1.6401 -1.5927 -1.5999
C -1.6398 -1.5848 -1.5952
C -1.6447 -1.5820 -1.5940
C -1.6376 -1.5855 -1.5957
C -1.6312 -1.5873 -1.5965
C -1.6402 -1.5827 -1.5940
C -1.6447 -1.5785 -1.5930
C -1.6433 -1.5888 -1.5948
C -1.6446 -1.5864 -1.5934
C -1.6476 -1.5913 -1.5956
C -1.6415 -1.5860 -1.5998
C -1.6505 -1.5889 -1.5846
C -1.6527 -1.5991 -1.6018
C -1.6402 -1.5933 -1.5987
C -1.6386 -1.5937 -1.6004
C -1.6361 -1.5788 -1.5933
C -1.6372 -1.5820 -1.5956
C -1.6311 -1.5720 -1.5919
C -1.6290 -1.5674 -1.5887
C -1.6286 -1.5722 -1.5960
C -1.6307 -1.5768 -1.5963
C -1.6270 -1.5701 -1.6007
C -1.6259 -1.5697 -1.5936
C -1.6261 -1.5634 -1.5919
C -1.6246 -1.5736 -1.5938
C -1.6239 -1.5773 -1.5958
C -1.6233 -1.5737 -1.5932
C -1.6247 -1.5718 -1.5910
C -1.6248 -1.5777 -1.5937
C -1.6218 -1.5815 -1.5855
C -1.6310 -1.5653 -1.5955
C -1.6286 -1.5583 -1.6014
C -1.6329 -1.5673 -1.5880
C -1.6360 -1.5632 -1.5986
C -1.6244 -1.5889 -1.6022
C -1.6194 -1.5935 -1.6036
C -1.6190 -1.5715 -1.5937
C -1.6143 -1.5697 -1.5974
C -1.6189 -1.5679 -1.5891
C -1.6226 -1.5681 -1.5865
C -1.6145 -1.5640 -1.5876
C -1.6122 -1.5632 -1.5880
C -1.6167 -1.5587 -1.5836
C -1.6199 -1.5611 -1.5823
C -1.6131 -1.5535 -1.5851
C -1.6181 -1.5548 -1.5809
C -1.6239 -1.5549 -1.5851
C -1.6274 -1.5570 -1.5910
C -1.6247 -1.5513 -1.5799
C -1.6299 -1.5509 -1.5812
C -1.6194 -1.5482 -1.5725
C -1.6177 -1.5436 -1.5655
C -1.6203 -1.5419 -1.5655
C -1.6135 -1.5422 -1.5581
C -1.6127 -1.5392 -1.5521
C -1.6107 -1.5443 -1.5578
C -1.6070 -1.5427 -1.5522
C -1.6112 -1.5480 -1.5655
C -1.6085 -1.5496 -1.5654
C -1.6159 -1.5504 -1.5727
C -1.6122 -1.5665 -1.5896
C -1.6151 -1.5688 -1.5920
C -1.6061 -1.5657 -1.5885
C -1.6040 -1.5637 -1.5855
C -1.6029 -1.5680 -1.5895
C -1.5985 -1.5672 -1.5889
C -1.6039 -1.5664 -1.5885
C -1.6035 -1.5742 -1.5906
C -1.6039 -1.5754 -1.5904
C -1.6055 -1.5752 -1.5899
138
REAL frame=156
C -1.6171 -1.5810 -1.5910
C -1.6182 -1.5790 -1.5906
C -1.6150 -1.5811 -1.5923
C -1.6197 -1.5822 -1.5898
C -1.6143 -1.5841 -1.5931
C -1.6099 -1.5840 -1.5929
C -1.6160 -1.5866 -1.5949
C -1.6148 -1.5835 -1.5913
C -1.6184 -1.5854 -1.5901
C -1.6101 -1.5800 -1.5913
C -1.6063 -1.5769 -1.5912
C -1.6107 -1.5788 -1.5926
C -1.6129 -1.5763 -1.5899
C -1.6070 -1.5747 -1.5950
C -1.6050 -1.5683 -1.5926
C -1.6040 -1.5789 -1.5957
C -1.6100 -1.5728 -1.5993
C -1.6094 -1.5810 -1.6031
C -1.6054 -1.5888 -1.6026
C -1.6140 -1.5792 -1.6074
C -1.6132 -1.5859 -1.6104
C -1.6195 -1.5690 -1.6073
C -1.6228 -1.5668 -1.6113
C -1.6257 -1.5618 -1.6052
C -1.6202 -1.5610 -1.6035
C -1.6232 -1.5532 -1.6036
C -1.6161 -1.5632 -1.5995
C -1.6159 -1.5567 -1.5964
C -1.6135 -1.5840 -1.5953
C -1.6158 -1.5901 -1.5946
C -1.6130 -1.5822 -1.5986
C -1.6101 -1.5772 -1.5990
C -1.6134 -1.5870 -1.6030
C -1.6097 -1.5884 -1.6061
C -1.6177 -1.5935 -1.6048
C -1.6159 -1.5990 -1.6058
C -1.6183 -1.5982 -1.6064
C -1.6236 -1.5886 -1.6037
C -1.6210 -1.5825 -1.6043
C -1.6313 -1.5926 -1.6018
C -1.6167 -1.5839 -1.6010
C -1.6189 -1.5816 -1.5979
C -1.6153 -1.5853 -1.6021
C -1.6113 -1.5885 -1.6048
C -1.6110 -1.5941 -1.6043
C -1.6063 -1.5856 -1.6072
C -1.6143 -1.5889 -1.6043
C -1.6183 -1.5929 -1.6040
C -1.6106 -1.5891 -1.6059
C -1.6181 -1.5820 -1.6012
C -1.6229 -1.5825 -1.6000
C -1.6137 -1.5768 -1.6010
C -1.6207 -1.5814 -1.5994
C -1.6200 -1.5755 -1.5984
C -1.6275 -1.5830 -1.5973
C -1.6288 -1.5802 -1.5945
C -1.6312 -1.5865 -1.5991
C -1.6304 -1.5886 -1.6014
C -1.6373 -1.5880 -1.5973
C -1.6396 -1.5863 -1.5970
C -1.6387 -1.5948 -1.5982
C -1.6367 -1.5968 -1.5982
C -1.6426 -1.5955 -1.5964
C -1.6371 -1.5967 -1.6008
C -1.6349 -1.5980 -1.6024
C -1.6395 -1.5995 -1.6016
C -1.6361 -1.5955 -1.6008
C -1.6296 -1.5944 -1.5996
C -1.6401 -1.5926 -1.5998
C -1.6398 -1.5849 -1.5952
C -1.6447 -1.5819 -1.5940
C -1.6375 -1.5855 -1.5954
C -1.6319 -1.5875 -1.5966
C -1.6403 -1.5825 -1.5940
C -1.6443 -1.5783 -1.5935
C -1.6434 -1.5888 -1.5947
C -1.6442 -1.5867 -1.5933
C -1.6475 -1.5913 -1.5957
C -1.6421 -1.5857 -1.5998
C -1.6503 -1.5891 -1.5845
C -1.6530 -1.5985 -1.6018
C -1.6401 -1.5935 -1.5985
C -1.6384 -1.5941 -1.6002
C -1.6361 -1.5788 -1.5934
C -1.6372 -1.5820 -1.5956
C -1.6310 -1.5721 -1.5918
C -1.6293 -1.5677 -1.5890
C -1.6286 -1.5722 -1.5960
C -1.6303 -1.5769 -1.5963
C -1.6272 -1.5697 -1.6003
C -1.6259 -1.5694 -1.5936
C -1.6261 -1.5635 -1.5920
C -1.6246 -1.5736 -1.5938
C -1.6236 -1.5774 -1.5960
C -1.6231 -1.5737 -1.5931
C -1.6253 -1.5714 -1.5913
C -1.6248 -1.5776 -1.5935
C -1.6218 -1.5815 -1.5856
C -1.6310 -1.5654 -1.5956
C -1.6283 -1.5584 -1.6017
C -1.6329 -1.5673 -1.5880
C -1.6361 -1.5629 -1.5988
C -1.6245 -1.5889 -1.6022
C -1.6201 -1.5936 -1.6043
C -1.6191 -1.5715 -1.5937
C -1.6144 -1.5697 -1.5972
C -1.6188 -1.5678 -1.5890
C -1.6226 -1.5677 -1.5866
C -1.6145 -1.5639 -1.5876
C -1.6124 -1.5636 -1.5885
C -1.6168 -1.5587 -1.5836
C -1.6201 -1.5611 -1.5824
C -1.6133 -1.5540 -1.5844
C -1.6181 -1.5549 -1.5809
C -1.6239 -1.5549 -1.5851
C -1.6276 -1.5570 -1.5910
C -1.6247 -1.5512 -1.5799
C -1.6297 -1.5510 -1.5816
C -1.6193 -1.5482 -1.5722
C -1.6178 -1.5436 -1.5657
C -1.6200 -1.5419 -1.5656
C -1.6135 -1.5423 -1.5580
C -1.6132 -1.5391 -1.5522
C -1.6107 -1.5443 -1.5577
C -1.6073 -1.5425 -1.5520
C -1.6112 -1.5479 -1.5656
C -1.6085 -1.5495 -1.5659
C -1.6159 -1.5504 -1.5727
C -1.6122 -1.5666 -1.5896
C -1.6151 -1.5688 -1.5921
C -1.6062 -1.5656 -1.5886
C -1.6042 -1.5635 -1.5855
C -1.6030 -1.5680 -1.5895
C -1.5985 -1.5667 -1.5886
C -1.6038 -1.5663 -1.5884
C -1.6036 -1.5743 -1.5905
C -1.6040 -1.5754 -1.5903
C -1.6055 -1.5753 -1.5899
138
REAL frame=157
C -1.6170 -1.5810 -1.5910
C -1.6181 -1.5788 -1.5908
C -1.6150 -1.5811 -1.5920
C -1.6197 -1.5825 -1.5904
C -1.6144 -1.5842 -1.5931
C -1.6096 -1.5838 -1.5924
C -1.6161 -1.5864 -1.5953
C -1.6148 -1.5834 -1.5914
C -1.6184 -1.5854 -1.5901
C -1.6102 -1.5800 -1.5913
C -1.6063 -1.5768 -1.5916
C -1.6107 -1.5786 -1.5926
C -1.6129 -1.5760 -1.5901
C -1.6069 -1.5747 -1.5951
C -1.6048 -1.5688 -1.5928
C -1.6040 -1.5788 -1.5960
C -1.6100 -1.5728 -1.5992
C -1.6094 -1.5811 -1.6030
C -1.6062 -1.5886 -1.6026
C -1.6139 -1.5791 -1.6075
C -1.6132 -1.5854 -1.6106
C -1.6195 -1.5691 -1.6075
C -1.6227 -1.5668 -1.6112
C -1.6257 -1.5617 -1.6056
C -1.6202 -1.5610 -1.6035
C -1.6233 -1.5531 -1.6040
C -1.6162 -1.5631 -1.5995
C -1.6157 -1.5564 -1.5966
C -1.6136 -1.5842 -1.5955
C -1.6158 -1.5901 -1.5945
C -1.6130 -1.5821 -1.5986
C -1.6104 -1.5772 -1.5986
C -1.6134 -1.5869 -1.6030
C -1.6097 -1.5882 -1.6063
C -1.6177 -1.5936 -1.6047
C -1.6163 -1.5992 -1.6054
C -1.6184 -1.5983 -1.6071
C -1.6235 -1.5885 -1.6037
C -1.6210 -1.5824 -1.6042
C -1.6311 -1.5926 -1.6018
C -1.6167 -1.5840 -1.6009
C -1.6188 -1.5815 -1.5979
C -1.6154 -1.5853 -1.6021
C -1.6113 -1.5884 -1.6047
C -1.6110 -1.5942 -1.6045
C -1.6061 -1.5851 -1.6073
C -1.6143 -1.5887 -1.6043
C -1.6184 -1.5931 -1.6038
C -1.6106 -1.5893 -1.6057
C -1.6182 -1.5819 -1.6012
C -1.6233 -1.5827 -1.6001
C -1.6138 -1.5769 -1.6012
C -1.6206 -1.5815 -1.5994
C -1.6198 -1.5751 -1.5994
C -1.6275 -1.5829 -1.5972
C -1.6288 -1.5803 -1.5946
C -1.6313 -1.5866 -1.5991
C -1.6302 -1.5886 -1.6010
C -1.6373 -1.5881 -1.5972
C -1.6393 -1.5864 -1.5970
C -1.6389 -1.5949 -1.5983
C -1.6364 -1.5969 -1.5981
C -1.6424 -1.5954 -1.5961
C -1.6372 -1.5967 -1.6008
C -1.6350 -1.5979 -1.6027
C -1.6396 -1.5996 -1.6016
C -1.6361 -1.5955 -1.6009
C -1.6297 -1.5944 -1.5997
C -1.6402 -1.5925 -1.5998
C -1.6397 -1.5850 -1.5952
C -1.6447 -1.5818 -1.5940
C -1.6373 -1.5855 -1.5952
C -1.6327 -1.5876 -1.5967
C -1.6403 -1.5824 -1.5941
C -1.6438 -1.5782 -1.5938
C -1.6435 -1.5888 -1.5947
C -1.6443 -1.5872 -1.5932
C -1.6474 -1.5912 -1.5956
C -1.6426 -1.5854 -1.5998
C -1.6502 -1.5895 -1.5844
C -1.6532 -1.5981 -1.6017
C -1.6400 -1.5936 -1.5983
C -1.6382 -1.5945 -1.6000
C -1.6362 -1.5787 -1.5936
C -1.6373 -1.5819 -1.5956
C -1.6309 -1.5722 -1.5918
C -1.6297 -1.5680 -1.5893
C -1.6285 -1.5723 -1.5959
C -1.6300 -1.5769 -1.5963
C -1.6273 -1.5696 -1.5999
C -1.6258 -1.5691 -1.5936
C -1.6262 -1.5635 -1.5920
C -1.6246 -1.5736 -1.5938
C -1.6234 -1.5776 -1.5961
C -1.6231 -1.5737 -1.5931
C -1.6255 -1.5711 -1.5914
C -1.6247 -1.5775 -1.5934
C -1.6217 -1.5815 -1.5856
C -1.6310 -1.5655 -1.5956
C -1.6280 -1.5585 -1.6019
C -1.6328 -1.5671 -1.5880
C -1.6363 -1.5625 -1.5989
C -1.6245 -1.5889 -1.6023
C -1.6206 -1.5938 -1.6048
C -1.6190 -1.5714 -1.5936
C -1.6145 -1.5696 -1.5970
C -1.6189 -1.5677 -1.5891
C -1.6224 -1.5674 -1.5867
C -1.6144 -1.5639 -1.5876
C -1.6126 -1.5638 -1.5888
C -1.6168 -1.5586 -1.5836
C -1.6201 -1.5610 -1.5824
C -1.6137 -1.5547 -1.5836
C -1.6182 -1.5550 -1.5810
C -1.6239 -1.5549 -1.5851
C -1.6278 -1.5572 -1.5909
C -1.6246 -1.5511 -1.5799
C -1.6294 -1.5510 -1.5818
C -1.6192 -1.5482 -1.5720
C -1.6179 -1.5437 -1.5656
C -1.6198 -1.5420 -1.5657
C -1.6135 -1.5422 -1.5581
C -1.6136 -1.5389 -1.5524
C -1.6107 -1.5443 -1.5577
C -1.6075 -1.5423 -1.5518
C -1.6113 -1.5478 -1.5656
C -1.6085 -1.5494 -1.5663
C -1.6159 -1.5504 -1.5727
C -1.6121 -1.5667 -1.5897
C -1.6151 -1.5688 -1.5921
C -1.6064 -1.5655 -1.5888
C -1.6043 -1.5635 -1.5855
C -1.6031 -1.5680 -1.5895
C -1.5984 -1.5663 -1.5885
C -1.6038 -1.5663 -1.5884
C -1.6037 -1.5743 -1.5904
C -1.6041 -1.5754 -1.5902
C -1.6055 -1.5754 -1.5899
138
REAL frame=158
C -1.6170 -1.5811 -1.5910
C -1.6178 -1.5785 -1.5910
C -1.6151 -1.5810 -1.5914
C -1.6196 -1.5827 -1.5908
C -1.6145 -1.5843 -1.5931
C -1.6095 -1.5836 -1.5921
C -1.6162 -1.5863 -1.5956
C -1.6147 -1.5834 -1.5915
C -1.6184 -1.5853 -1.5901
C -1.6103 -1.5799 -1.5913
C -1.6065 -1.5769 -1.5918
C -1.6108 -1.5785 -1.5926
C -1.6129 -1.5756 -1.5903
C -1.6068 -1.5747 -1.5952
C -1.6045 -1.5692 -1.5931
C -1.6040 -1.5787 -1.5961
C -1.6099 -1.5729 -1.5992
C -1.6094 -1.5811 -1.6030
C -1.6069 -1.5885 -1.6025
C -1.6137 -1.5791 -1.6076
C -1.6131 -1.5849 -1.6108
C -1.6194 -1.5691 -1.6076
C -1.6226 -1.5668 -1.6111
C -1.6257 -1.5617 -1.6057
C -1.6202 -1.5609 -1.6036
C -1.6233 -1.5529 -1.6042
C -1.6163 -1.5629 -1.5995
C -1.6156 -1.5561 -1.5966
C -1.6137 -1.5843 -1.5956
C -1.6157 -1.5901 -1.5945
C -1.6130 -1.5821 -1.5986
C -1.6108 -1.5772 -1.5983
C -1.6135 -1.5868 -1.6030
C -1.6096 -1.5878 -1.6065
C -1.6178 -1.5937 -1.6046
C -1.6165 -1.5990 -1.6051
C -1.6184 -1.5985 -1.6075
C -1.6234 -1.5884 -1.6036
C -1.6211 -1.5824 -1.6041
C -1.6310 -1.5927 -1.6019
C -1.6166 -1.5842 -1.6008
C -1.6188 -1.5815 -1.5978
C -1.6156 -1.5853 -1.6020
C -1.6113 -1.5884 -1.6047
C -1.6111 -1.5943 -1.6051
C -1.6059 -1.5848 -1.6071
C -1.6145 -1.5885 -1.6043
C -1.6186 -1.5933 -1.6038
C -1.6106 -1.5893 -1.6055
C -1.6183 -1.5819 -1.6012
C -1.6236 -1.5828 -1.6002
C -1.6140 -1.5770 -1.6014
C -1.6204 -1.5816 -1.5994
C -1.6195 -1.5750 -1.6002
C -1.6274 -1.5829 -1.5973
C -1.6288 -1.5805 -1.5946
C -1.6314 -1.5867 -1.5992
C -1.6300 -1.5887 -1.6007
C -1.6373 -1.5881 -1.5972
C -1.6392 -1.5864 -1.5969
C -1.6391 -1.5950 -1.5983
C -1.6363 -1.5970 -1.5982
C -1.6424 -1.5955 -1.5959
C -1.6374 -1.5967 -1.6009
C -1.6350 -1.5978 -1.6028
C -1.6398 -1.5996 -1.6015
C -1.6361 -1.5954 -1.6010
C -1.6299 -1.5944 -1.5997
C -1.6402 -1.5925 -1.5998
C -1.6397 -1.5851 -1.5953
C -1.6446 -1.5818 -1.5940
C -1.6372 -1.5854 -1.5950
C -1.6337 -1.5876 -1.5967
C -1.6404 -1.5823 -1.5941
C -1.6434 -1.5782 -1.5938
C -1.6436 -1.5888 -1.5946
C -1.6448 -1.5876 -1.5931
C -1.6473 -1.5910 -1.5955
C -1.6430 -1.5851 -1.5998
C -1.6502 -1.5900 -1.5844
C -1.6532 -1.5981 -1.6015
C -1.6399 -1.5937 -1.5981
C -1.6381 -1.5949 -1.5998
C -1.6361 -1.5787 -1.5937
C -1.6373 -1.5819 -1.5955
C -1.6308 -1.5722 -1.5918
C -1.6301 -1.5684 -1.5896
C -1.6285 -1.5724 -1.5959
C -1.6298 -1.5768 -1.5965
C -1.6272 -1.5695 -1.5995
C -1.6258 -1.5689 -1.5935
C -1.6262 -1.5636 -1.5921
C -1.6246 -1.5736 -1.5939
C -1.6233 -1.5780 -1.5960
C -1.6231 -1.5736 -1.5931
C -1.6255 -1.5710 -1.5915
C -1.6247 -1.5774 -1.5933
C -1.6215 -1.5814 -1.5854
C -1.6310 -1.5656 -1.5957
C -1.6279 -1.5586 -1.6020
C -1.6326 -1.5669 -1.5881
C -1.6365 -1.5621 -1.5992
C -1.6246 -1.5889 -1.6024
C -1.6210 -1.5940 -1.6050
C -1.6190 -1.5713 -1.5934
C -1.6146 -1.5696 -1.5968
C -1.6190 -1.5676 -1.5892
C -1.6222 -1.5672 -1.5867
C -1.6144 -1.5639 -1.5877
C -1.6126 -1.5637 -1.5889
C -1.6168 -1.5585 -1.5836
C -1.6201 -1.5608 -1.5822
C -1.6141 -1.5555 -1.5829
C -1.6183 -1.5551 -1.5811
C -1.6239 -1.5550 -1.5850
C -1.6279 -1.5575 -1.5907
C -1.6245 -1.5511 -1.5798
C -1.6291 -1.5509 -1.5819
C -1.6192 -1.5482 -1.5720
C -1.6180 -1.5438 -1.5655
C -1.6197 -1.5422 -1.5658
C -1.6136 -1.5421 -1.5581
C -1.6139 -1.5387 -1.5526
C -1.6106 -1.5443 -1.5577
C -1.6078 -1.5422 -1.5518
C -1.6114 -1.5477 -1.5656
C -1.6085 -1.5493 -1.5666
C -1.6159 -1.5504 -1.5727
C -1.6120 -1.5668 -1.5897
C -1.6151 -1.5687 -1.5922
C -1.6066 -1.5655 -1.5889
C -1.6044 -1.5635 -1.5856
C -1.6031 -1.5679 -1.5894
C -1.5984 -1.5660 -1.5885
C -1.6039 -1.5664 -1.5884
C -1.6037 -1.5742 -1.5904
C -1.6042 -1.5755 -1.5902
C -1.6056 -1.5755 -1.5900
138
REAL frame=159
C -1.6170 -1.5812 -1.5911
C -1.6175 -1.5783 -1.5912
C -1.6152 -1.5808 -1.5907
C -1.6195 -1.5828 -1.5908
C -1.6146 -1.5843 -1.5931
C -1.6096 -1.5837 -1.5921
C -1.6162 -1.5864 -1.5959
C -1.6146 -1.5833 -1.5917
C -1.6184 -1.5853 -1.5900
C -1.6104 -1.5798 -1.5913
C -1.6069 -1.5772 -1.5919
C -1.6109 -1.5783 -1.5927
C -1.6128 -1.5752 -1.5907
C -1.6067 -1.5747 -1.5952
C -1.6041 -1.5694 -1.5934
C -1.6041 -1.5787 -1.5962
C -1.6099 -1.5730 -1.5992
C -1.6095 -1.5811 -1.6030
C -1.6075 -1.5883 -1.6025
C -1.6136 -1.5791 -1.6077
C -1.6130 -1.5845 -1.6109
C -1.6194 -1.5692 -1.6077
C -1.6226 -1.5668 -1.6111
C -1.6259 -1.5619 -1.6054
C -1.6202 -1.5609 -1.6037
C -1.6234 -1.5529 -1.6043
C -1.6163 -1.5626 -1.5994
C -1.6157 -1.5559 -1.5965
C -1.6138 -1.5843 -1.5957
C -1.6156 -1.5902 -1.5944
C -1.6129 -1.5821 -1.5986
C -1.6112 -1.5771 -1.5981
C -1.6136 -1.5868 -1.6030
C -1.6094 -1.5873 -1.6067
C -1.6178 -1.5937 -1.6045
C -1.6167 -1.5984 -1.6047
C -1.6183 -1.5986 -1.6074
C -1.6233 -1.5884 -1.6036
C -1.6211 -1.5823 -1.6039
C -1.6309 -1.5927 -1.6019
C -1.6165 -1.5843 -1.6007
C -1.6188 -1.5815 -1.5978
C -1.6157 -1.5853 -1.6018
C -1.6114 -1.5884 -1.6047
C -1.6113 -1.5944 -1.6059
C -1.6056 -1.5846 -1.6066
C -1.6146 -1.5883 -1.6042
C -1.6188 -1.5935 -1.6038
C -1.6106 -1.5891 -1.6054
C -1.6184 -1.5818 -1.6012
C -1.6238 -1.5829 -1.6002
C -1.6142 -1.5769 -1.6018
C -1.6203 -1.5816 -1.5995
C -1.6193 -1.5751 -1.6007
C -1.6273 -1.5829 -1.5973
C -1.6288 -1.5805 -1.5947
C -1.6316 -1.5869 -1.5992
C -1.6298 -1.5889 -1.6006
C -1.6373 -1.5882 -1.5972
C -1.6392 -1.5864 -1.5967
C -1.6391 -1.5951 -1.5983
C -1.6365 -1.5972 -1.5986
C -1.6426 -1.5957 -1.5958
C -1.6375 -1.5968 -1.6009
C -1.6350 -1.5979 -1.6028
C -1.6399 -1.5995 -1.6015
C -1.6360 -1.5951 -1.6010
C -1.6300 -1.5944 -1.5998
C -1.6402 -1.5925 -1.5998
C -1.6398 -1.5851 -1.5953
C -1.6446 -1.5818 -1.5940
C -1.6370 -1.5853 -1.5950
C -1.6346 -1.5876 -1.5965
C -1.6405 -1.5823 -1.5940
C -1.6431 -1.5783 -1.5934
C -1.6436 -1.5887 -1.5947
C -1.6455 -1.5879 -1.5931
C -1.6473 -1.5909 -1.5954
C -1.6432 -1.5849 -1.5996
C -1.6503 -1.5904 -1.5845
C -1.6530 -1.5984 -1.6014
C -1.6398 -1.5938 -1.5979
C -1.6379 -1.5954 -1.5996
C -1.6361 -1.5786 -1.5939
C -1.6374 -1.5819 -1.5955
C -1.6308 -1.5723 -1.5919
C -1.6303 -1.5689 -1.5901
C -1.6284 -1.5724 -1.5959
C -1.6296 -1.5765 -1.5967
C -1.6271 -1.5696 -1.5992
C -1.6259 -1.5688 -1.5936
C -1.6261 -1.5636 -1.5921
C -1.6245 -1.5736 -1.5939
C -1.6233 -1.5783 -1.5959
C -1.6231 -1.5736 -1.5931
C -1.6251 -1.5709 -1.5915
C -1.6246 -1.5775 -1.5932
C -1.6214 -1.5813 -1.5851
C -1.6309 -1.5657 -1.5957
C -1.6279 -1.5587 -1.6019
C -1.6324 -1.5666 -1.5882
C -1.6366 -1.5616 -1.5993
C -1.6247 -1.5889 -1.6025
C -1.6211 -1.5942 -1.6049
C -1.6189 -1.5711 -1.5931
C -1.6147 -1.5696 -1.5967
C -1.6191 -1.5676 -1.5894
C -1.6220 -1.5670 -1.5868
C -1.6144 -1.5640 -1.5878
C -1.6125 -1.5633 -1.5886
C -1.6168 -1.5585 -1.5836
C -1.6201 -1.5605 -1.5821
C -1.6146 -1.5563 -1.5823
C -1.6184 -1.5551 -1.5811
C -1.6239 -1.5551 -1.5848
C -1.6280 -1.5577 -1.5906
C -1.6245 -1.5511 -1.5798
C -1.6287 -1.5508 -1.5817
C -1.6191 -1.5482 -1.5720
C -1.6180 -1.5440 -1.5653
C -1.6197 -1.5424 -1.5657
C -1.6137 -1.5420 -1.5582
C -1.6140 -1.5385 -1.5527
C -1.6106 -1.5443 -1.5577
C -1.6081 -1.5423 -1.5520
C -1.6114 -1.5478 -1.5656
C -1.6085 -1.5493 -1.5667
C -1.6159 -1.5503 -1.5728
C -1.6119 -1.5668 -1.5897
C -1.6151 -1.5687 -1.5922
C -1.6067 -1.5654 -1.5890
C -1.6045 -1.5636 -1.5859
C -1.6030 -1.5678 -1.5893
C -1.5984 -1.5658 -1.5887
C -1.6041 -1.5666 -1.5885
C -1.6038 -1.5741 -1.5903
C -1.6043 -1.5756 -1.5901
C -1.6057 -1.5756 -1.5901
138
REAL frame=160
C -1.6169 -1.5813 -1.5912
C -1.6173 -1.5782 -1.5913
C -1.6155 -1.5807 -1.5900
C -1.6193 -1.5828 -1.5905
C -1.6146 -1.5843 -1.5930
C -1.6099 -1.5839 -1.5924
C -1.6160 -1.5866 -1.5960
C -1.6146 -1.5833 -1.5917
C -1.6184 -1.5852 -1.5900
C -1.6104 -1.5797 -1.5914
C -1.6072 -1.5775 -1.5918
C -1.6110 -1.5782 -1.5928
C -1.6127 -1.5748 -1.5911
C -1.6066 -1.5747 -1.5952
C -1.6037 -1.5694 -1.5938
C -1.6044 -1.5788 -1.5963
C -1.6098 -1.5730 -1.5992
C -1.6095 -1.5810 -1.6031
C -1.6079 -1.5881 -1.6025
C -1.6135 -1.5791 -1.6077
C -1.6129 -1.5842 -1.6109
C -1.6193 -1.5691 -1.6078
C -1.6225 -1.5668 -1.6111
C -1.6260 -1.5623 -1.6047
C -1.6202 -1.5609 -1.6038
C -1.6236 -1.5529 -1.6041
C -1.6163 -1.5624 -1.5994
C -1.6159 -1.5558 -1.5964
C -1.6137 -1.5842 -1.5957
C -1.6155 -1.5903 -1.5945
C -1.6129 -1.5821 -1.5986
C -1.6117 -1.5770 -1.5979
C -1.6138 -1.5868 -1.6030
C -1.6092 -1.5868 -1.6069
C -1.6178 -1.5938 -1.6045
C -1.6167 -1.5977 -1.6044
C -1.6181 -1.5987 -1.6071
C -1.6232 -1.5884 -1.6036
C -1.6211 -1.5823 -1.6037
C -1.6309 -1.5927 -1.6019
C -1.6163 -1.5844 -1.6006
C -1.6188 -1.5815 -1.5978
C -1.6159 -1.5851 -1.6016
C -1.6114 -1.5885 -1.6047
C -1.6115 -1.5944 -1.6068
C -1.6054 -1.5844 -1.6059
C -1.6148 -1.5882 -1.6041
C -1.6190 -1.5937 -1.6039
C -1.6105 -1.5885 -1.6054
C -1.6184 -1.5818 -1.6012
C -1.6238 -1.5828 -1.6002
C -1.6144 -1.5768 -1.6022
C -1.6202 -1.5815 -1.5996
C -1.6189 -1.5756 -1.6008
C -1.6272 -1.5831 -1.5973
C -1.6288 -1.5806 -1.5948
C -1.6316 -1.5871 -1.5992
C -1.6296 -1.5890 -1.6006
C -1.6374 -1.5883 -1.5972
C -1.6393 -1.5863 -1.5965
C -1.6391 -1.5950 -1.5982
C -1.6369 -1.5975 -1.5991
C -1.6429 -1.5960 -1.5957
C -1.6377 -1.5969 -1.6010
C -1.6351 -1.5980 -1.6028
C -1.6401 -1.5993 -1.6016
C -1.6360 -1.5948 -1.6010
C -1.6302 -1.5945 -1.5999
C -1.6402 -1.5926 -1.5998
C -1.6398 -1.5851 -1.5953
C -1.6445 -1.5818 -1.5940
C -1.6369 -1.5852 -1.5950
C -1.6354 -1.5876 -1.5961
C -1.6405 -1.5822 -1.5939
C -1.6431 -1.5784 -1.5928
C -1.6435 -1.5887 -1.5948
C -1.6464 -1.5880 -1.5931
C -1.6473 -1.5907 -1.5953
C -1.6431 -1.5847 -1.5992
C -1.6505 -1.5908 -1.5847
C -1.6526 -1.5990 -1.6012
C -1.6397 -1.5939 -1.5978
C -1.6377 -1.5958 -1.5994
C -1.6361 -1.5786 -1.5940
C -1.6375 -1.5819 -1.5955
C -1.6308 -1.5723 -1.5919
C -1.6302 -1.5694 -1.5905
C -1.6283 -1.5723 -1.5958
C -1.6294 -1.5762 -1.5969
C -1.6268 -1.5698 -1.5990
C -1.6261 -1.5689 -1.5936
C -1.6261 -1.5635 -1.5921
C -1.6244 -1.5736 -1.5940
C -1.6234 -1.5786 -1.5958
C -1.6232 -1.5735 -1.5930
C -1.6245 -1.5709 -1.5914
C -1.6246 -1.5775 -1.5933
C -1.6213 -1.5811 -1.5846
C -1.6309 -1.5657 -1.5958
C -1.6280 -1.5587 -1.6018
C -1.6321 -1.5664 -1.5883
C -1.6367 -1.5613 -1.5995
C -1.6247 -1.5888 -1.6026
C -1.6209 -1.5945 -1.6045
C -1.6188 -1.5708 -1.5928
C -1.6147 -1.5696 -1.5965
C -1.6192 -1.5675 -1.5895
C -1.6218 -1.5668 -1.5869
C -1.6144 -1.5640 -1.5878
C -1.6122 -1.5628 -1.5882
C -1.6167 -1.5584 -1.5836
C -1.6202 -1.5601 -1.5819
C -1.6150 -1.5570 -1.5818
C -1.6186 -1.5550 -1.5811
C -1.6239 -1.5551 -1.5847
C -1.6280 -1.5580 -1.5904
C -1.6244 -1.5511 -1.5797
C -1.6283 -1.5507 -1.5814
C -1.6191 -1.5482 -1.5722
C -1.6181 -1.5441 -1.5650
C -1.6199 -1.5426 -1.5655
C -1.6138 -1.5419 -1.5583
C -1.6140 -1.5383 -1.5528
C -1.6106 -1.5442 -1.5579
C -1.6083 -1.5425 -1.5523
C -1.6115 -1.5478 -1.5656
C -1.6086 -1.5494 -1.5665
C -1.6159 -1.5503 -1.5729
C -1.6119 -1.5667 -1.5897
C -1.6150 -1.5686 -1.5923
C -1.6069 -1.5654 -1.5891
C -1.6046 -1.5637 -1.5862
C -1.6030 -1.5677 -1.5891
C -1.5984 -1.5658 -1.5889
C -1.6042 -1.5668 -1.5886
C -1.6038 -1.5740 -1.5902
C -1.6045 -1.5757 -1.5901
C -1.6057 -1.5757 -1.5901
138
REAL frame=161
C -1.6180 -1.5825 -1.5924
C -1.6182 -1.5794 -1.5925
C -1.6167 -1.5818 -1.5908
C -1.6203 -1.5837 -1.5911
C -1.6156 -1.5853 -1.5941
C -1.6113 -1.5853 -1.5939
C -1.6169 -1.5879 -1.5971
C -1.6156 -1.5843 -1.5928
C -1.6195 -1.5863 -1.5911
C -1.6115 -1.5806 -1.5925
C -1.6086 -1.5788 -1.5928
C -1.6122 -1.5791 -1.5939
C -1.6136 -1.5756 -1.5924
C -1.6075 -1.5758 -1.5963
C -1.6044 -1.5703 -1.5952
C -1.6058 -1.5799 -1.5973
C -1.6109 -1.5741 -1.6003
C -1.6107 -1.5820 -1.6043
C -1.6091 -1.5891 -1.6036
C -1.6144 -1.5802 -1.6088
C -1.6139 -1.5854 -1.6119
C -1.6203 -1.5702 -1.6089
C -1.6235 -1.5679 -1.6122
C -1.6273 -1.5639 -1.6049
C -1.6213 -1.5619 -1.6049
C -1.6249 -1.5540 -1.6050
C -1.6173 -1.5633 -1.6004
C -1.6174 -1.5568 -1.5973
C -1.6147 -1.5852 -1.5967
C -1.6166 -1.5915 -1.5956
C -1.6139 -1.5833 -1.5998
C -1.6132 -1.5780 -1.5989
C -1.6150 -1.5879 -1.6040
C -1.6101 -1.5875 -1.6081
C -1.6188 -1.5949 -1.6056
C -1.6175 -1.5981 -1.6053
C -1.6190 -1.5998 -1.6075
C -1.6241 -1.5896 -1.6047
C -1.6222 -1.5833 -1.6046
C -1.6318 -1.5938 -1.6030
C -1.6172 -1.5855 -1.6015
C -1.6198 -1.5826 -1.5990
C -1.6171 -1.5861 -1.6025
C -1.6125 -1.5896 -1.6058
C -1.6126 -1.5956 -1.6086
C -1.6063 -1.5855 -1.6063
C -1.6160 -1.5892 -1.6050
C -1.6202 -1.5949 -1.6050
C -1.6116 -1.5889 -1.6066
C -1.6195 -1.5828 -1.6022
C -1.6249 -1.5837 -1.6011
C -1.6157 -1.5778 -1.6036
C -1.6211 -1.5826 -1.6008
C -1.6197 -1.5773 -1.6016
C -1.6282 -1.5844 -1.5983
C -1.6299 -1.5817 -1.5959
C -1.6327 -1.5884 -1.6002
C -1.6305 -1.5903 -1.6016
C -1.6384 -1.5895 -1.5984
C -1.6405 -1.5875 -1.5975
C -1.6401 -1.5961 -1.5993
C -1.6384 -1.5988 -1.6007
C -1.6442 -1.5974 -1.5969
C -1.6389 -1.5982 -1.6021
C -1.6362 -1.5993 -1.6037
C -1.6412 -1.6002 -1.6027
C -1.6370 -1.5956 -1.6019
C -1.6313 -1.5956 -1.6010
C -1.6412 -1.5938 -1.6009
C -1.6408 -1.5861 -1.5964
C -1.6454 -1.5831 -1.5951
C -1.6378 -1.5862 -1.5962
C -1.6371 -1.5887 -1.5967
C -1.6415 -1.5833 -1.5949
C -1.6444 -1.5796 -1.5932
C -1.6445 -1.5897 -1.5960
C -1.6482 -1.5890 -1.5945
C -1.6483 -1.5917 -1.5963
C -1.6439 -1.5858 -1.6000
C -1.6518 -1.5922 -1.5861
C -1.6531 -1.6007 -1.6021
C -1.6406 -1.5951 -1.5987
C -1.6386 -1.5972 -1.6003
C -1.6372 -1.5797 -1.5951
C -1.6386 -1.5829 -1.5967
C -1.6319 -1.5734 -1.5932
C -1.6311 -1.5709 -1.5921
C -1.6293 -1.5734 -1.5969
C -1.6303 -1.5771 -1.5982
C -1.6275 -1.5711 -1.6000
C -1.6273 -1.5701 -1.5947
C -1.6271 -1.5646 -1.5932
C -1.6253 -1.5748 -1.5952
C -1.6245 -1.5798 -1.5968
C -1.6244 -1.5744 -1.5941
C -1.6250 -1.5721 -1.5924
C -1.6256 -1.5787 -1.5945
C -1.6223 -1.5821 -1.5854
C -1.6319 -1.5669 -1.5970
C -1.6290 -1.5598 -1.6027
C -1.6330 -1.5674 -1.5895
C -1.6377 -1.5623 -1.6007
C -1.6258 -1.5898 -1.6038
C -1.6216 -1.5959 -1.6050
C -1.6198 -1.5716 -1.5937
C -1.6158 -1.5707 -1.5975
C -1.6202 -1.5685 -1.5907
C -1.6229 -1.5677 -1.5881
C -1.6155 -1.5652 -1.5891
C -1.6129 -1.5635 -1.5887
C -1.6178 -1.5596 -1.5848
C -1.6215 -1.5607 -1.5831
C -1.6163 -1.5584 -1.5828
C -1.6197 -1.5560 -1.5822
C -1.6249 -1.5563 -1.5857
C -1.6289 -1.5592 -1.5914
C -1.6253 -1.5524 -1.5809
C -1.6289 -1.5517 -1.5823
C -1.6202 -1.5493 -1.5736
C -1.6191 -1.5455 -1.5660
C -1.6213 -1.5439 -1.5663
C -1.6149 -1.5430 -1.5595
C -1.6149 -1.5393 -1.5540
C -1.6116 -1.5452 -1.5592
C -1.6094 -1.5438 -1.5538
C -1.6126 -1.5490 -1.5668
C -1.6098 -1.5506 -1.5673
C -1.6169 -1.5515 -1.5742
C -1.6131 -1.5676 -1.5908
C -1.6160 -1.5696 -1.5935
C -1.6080 -1.5666 -1.5903
C -1.6058 -1.5648 -1.5877
C -1.6040 -1.5688 -1.5900
C -1.5995 -1.5669 -1.5903
C -1.6052 -1.5680 -1.5897
C -1.6050 -1.5749 -1.5912
C -1.6057 -1.5768 -1.5913
C -1.6068 -1.5768 -1.5914
138
REAL frame=162
C -1.6180 -1.5826 -1.5925
C -1.6183 -1.5796 -1.5926
C -1.6167 -1.5819 -1.5908
C -1.6202 -1.5835 -1.5906
C -1.6156 -1.5852 -1.5941
C -1.6117 -1.5857 -1.5944
C -1.6167 -1.5881 -1.5968
C -1.6156 -1.5843 -1.5928
C -1.6194 -1.5863 -1.5910
C -1.6115 -1.5805 -1.5926
C -1.6088 -1.5789 -1.5929
C -1.6123 -1.5790 -1.5941
C -1.6136 -1.5755 -1.5926
C -1.6075 -1.5759 -1.5962
C -1.6042 -1.5700 -1.5953
C -1.6061 -1.5800 -1.5972
C -1.6109 -1.5740 -1.6003
C -1.6108 -1.5819 -1.6044
C -1.6090 -1.5891 -1.6037
C -1.6143 -1.5803 -1.6088
C -1.6139 -1.5857 -1.6119
C -1.6202 -1.5701 -1.6089
C -1.6235 -1.5679 -1.6123
C -1.6273 -1.5645 -1.6040
C -1.6213 -1.5618 -1.6050
C -1.6251 -1.5540 -1.6048
C -1.6172 -1.5633 -1.6004
C -1.6179 -1.5567 -1.5972
C -1.6146 -1.5850 -1.5966
C -1.6165 -1.5916 -1.5957
C -1.6140 -1.5833 -1.5999
C -1.6135 -1.5781 -1.5988
C -1.6151 -1.5880 -1.6039
C -1.6101 -1.5874 -1.6081
C -1.6188 -1.5950 -1.6056
C -1.6172 -1.5975 -1.6052
C -1.6188 -1.5997 -1.6068
C -1.6240 -1.5897 -1.6047
C -1.6222 -1.5832 -1.6045
C -1.6318 -1.5938 -1.6030
C -1.6171 -1.5855 -1.6014
C -1.6198 -1.5827 -1.5990
C -1.6173 -1.5860 -1.6023
C -1.6125 -1.5896 -1.6059
C -1.6126 -1.5957 -1.6092
C -1.6062 -1.5855 -1.6058
C -1.6162 -1.5892 -1.6049
C -1.6204 -1.5948 -1.6051
C -1.6116 -1.5881 -1.6067
C -1.6196 -1.5827 -1.6023
C -1.6248 -1.5834 -1.6009
C -1.6159 -1.5776 -1.6040
C -1.6210 -1.5825 -1.6008
C -1.6195 -1.5779 -1.6010
C -1.6282 -1.5846 -1.5984
C -1.6300 -1.5817 -1.5960
C -1.6326 -1.5885 -1.6002
C -1.6306 -1.5905 -1.6016
C -1.6385 -1.5896 -1.5985
C -1.6407 -1.5875 -1.5975
C -1.6401 -1.5961 -1.5992
C -1.6388 -1.5989 -1.6011
C -1.6445 -1.5978 -1.5969
C -1.6390 -1.5983 -1.6023
C -1.6364 -1.5995 -1.6036
C -1.6413 -1.6001 -1.6028
C -1.6370 -1.5954 -1.6018
C -1.6315 -1.5956 -1.6011
C -1.6412 -1.5937 -1.6010
C -1.6408 -1.5861 -1.5963
C -1.6454 -1.5832 -1.5951
C -1.6378 -1.5861 -1.5964
C -1.6374 -1.5886 -1.5965
C -1.6415 -1.5833 -1.5947
C -1.6449 -1.5796 -1.5924
C -1.6445 -1.5897 -1.5961
C -1.6486 -1.5886 -1.5946
C -1.6484 -1.5916 -1.5961
C -1.6436 -1.5857 -1.5995
C -1.6521 -1.5923 -1.5864
C -1.6524 -1.6010 -1.6020
C -1.6405 -1.5952 -1.5985
C -1.6385 -1.5975 -1.6001
C -1.6372 -1.5798 -1.5951
C -1.6387 -1.5829 -1.5968
C -1.6320 -1.5734 -1.5933
C -1.6309 -1.5713 -1.5925
C -1.6292 -1.5733 -1.5969
C -1.6302 -1.5769 -1.5983
C -1.6272 -1.5713 -1.5999
C -1.6275 -1.5703 -1.5947
C -1.6270 -1.5646 -1.5932
C -1.6253 -1.5748 -1.5953
C -1.6247 -1.5796 -1.5968
C -1.6244 -1.5743 -1.5940
C -1.6247 -1.5722 -1.5922
C -1.6256 -1.5789 -1.5947
C -1.6222 -1.5820 -1.5851
C -1.6318 -1.5669 -1.5971
C -1.6290 -1.5597 -1.6026
C -1.6330 -1.5674 -1.5896
C -1.6376 -1.5624 -1.6007
C -1.6259 -1.5897 -1.6038
C -1.6212 -1.5961 -1.6043
C -1.6198 -1.5713 -1.5937
C -1.6159 -1.5708 -1.5973
C -1.6202 -1.5685 -1.5906
C -1.6229 -1.5675 -1.5882
C -1.6156 -1.5652 -1.5891
C -1.6126 -1.5632 -1.5881
C -1.6178 -1.5597 -1.5848
C -1.6219 -1.5602 -1.5832
C -1.6163 -1.5585 -1.5827
C -1.6198 -1.5560 -1.5820
C -1.6249 -1.5563 -1.5856
C -1.6287 -1.5592 -1.5914
C -1.6252 -1.5524 -1.5808
C -1.6286 -1.5517 -1.5820
C -1.6202 -1.5494 -1.5737
C -1.6191 -1.5456 -1.5660
C -1.6217 -1.5439 -1.5657
C -1.6150 -1.5429 -1.5594
C -1.6147 -1.5391 -1.5540
C -1.6116 -1.5450 -1.5594
C -1.6093 -1.5439 -1.5541
C -1.6126 -1.5492 -1.5668
C -1.6101 -1.5507 -1.5667
C -1.6169 -1.5515 -1.5743
C -1.6132 -1.5674 -1.5909
C -1.6159 -1.5696 -1.5935
C -1.6081 -1.5666 -1.5904
C -1.6059 -1.5647 -1.5882
C -1.6039 -1.5687 -1.5899
C -1.5996 -1.5670 -1.5905
C -1.6051 -1.5680 -1.5896
C -1.6051 -1.5749 -1.5911
C -1.6058 -1.5769 -1.5913
C -1.6068 -1.5769 -1.5915
138
REAL frame=163
C -1.6180 -1.5827 -1.5925
C -1.6186 -1.5799 -1.5927
C -1.6165 -1.5821 -1.5914
C -1.6203 -1.5833 -1.5901
C -1.6155 -1.5851 -1.5941
C -1.6121 -1.5860 -1.5949
C -1.6167 -1.5882 -1.5963
C -1.6157 -1.5842 -1.5927
C -1.6194 -1.5862 -1.5910
C -1.6115 -1.5804 -1.5927
C -1.6087 -1.5787 -1.5930
C -1.6123 -1.5789 -1.5942
C -1.6136 -1.5755 -1.5926
C -1.6076 -1.5759 -1.5962
C -1.6042 -1.5698 -1.5953
C -1.6063 -1.5801 -1.5971
C -1.6109 -1.5738 -1.6004
C -1.6109 -1.5818 -1.6046
C -1.6087 -1.5891 -1.6040
C -1.6142 -1.5803 -1.6088
C -1.6138 -1.5863 -1.6119
C -1.6200 -1.5701 -1.6090
C -1.6234 -1.5679 -1.6124
C -1.6272 -1.5651 -1.6032
C -1.6214 -1.5617 -1.6050
C -1.6254 -1.5539 -1.6047
C -1.6170 -1.5633 -1.6004
C -1.6185 -1.5565 -1.5972
C -1.6146 -1.5849 -1.5965
C -1.6165 -1.5917 -1.5958
C -1.6141 -1.5833 -1.6000
C -1.6137 -1.5782 -1.5988
C -1.6151 -1.5881 -1.6038
C -1.6103 -1.5875 -1.6080
C -1.6188 -1.5950 -1.6055
C -1.6168 -1.5973 -1.6054
C -1.6188 -1.5996 -1.6062
C -1.6239 -1.5899 -1.6046
C -1.6222 -1.5831 -1.6043
C -1.6317 -1.5937 -1.6030
C -1.6169 -1.5854 -1.6014
C -1.6198 -1.5827 -1.5991
C -1.6174 -1.5859 -1.6021
C -1.6125 -1.5896 -1.6059
C -1.6125 -1.5958 -1.6094
C -1.6063 -1.5856 -1.6055
C -1.6163 -1.5893 -1.6049
C -1.6205 -1.5946 -1.6051
C -1.6118 -1.5874 -1.6068
C -1.6197 -1.5827 -1.6024
C -1.6247 -1.5830 -1.6006
C -1.6160 -1.5774 -1.6041
C -1.6210 -1.5824 -1.6008
C -1.6194 -1.5784 -1.6003
C -1.6282 -1.5848 -1.5984
C -1.6300 -1.5817 -1.5961
C -1.6325 -1.5887 -1.6002
C -1.6307 -1.5907 -1.6017
C -1.6386 -1.5897 -1.5985
C -1.6410 -1.5877 -1.5976
C -1.6401 -1.5961 -1.5993
C -1.6391 -1.5989 -1.6013
C -1.6447 -1.5981 -1.5970
C -1.6391 -1.5983 -1.6023
C -1.6367 -1.5996 -1.6036
C -1.6414 -1.6001 -1.6029
C -1.6371 -1.5955 -1.6016
C -1.6316 -1.5956 -1.6011
C -1.6412 -1.5935 -1.6010
C -1.6408 -1.5860 -1.5964
C -1.6453 -1.5833 -1.5951
C -1.6378 -1.5859 -1.5965
C -1.6376 -1.5884 -1.5965
C -1.6414 -1.5833 -1.5946
C -1.6454 -1.5797 -1.5918
C -1.6445 -1.5896 -1.5962
C -1.6487 -1.5881 -1.5947
C -1.6484 -1.5916 -1.5959
C -1.6433 -1.5858 -1.5992
C -1.6524 -1.5921 -1.5866
C -1.6518 -1.6010 -1.6020
C -1.6403 -1.5952 -1.5984
C -1.6384 -1.5976 -1.6000
C -1.6373 -1.5799 -1.5950
C -1.6387 -1.5828 -1.5969
C -1.6320 -1.5734 -1.5935
C -1.6308 -1.5716 -1.5929
C -1.6291 -1.5732 -1.5969
C -1.6302 -1.5767 -1.5983
C -1.6269 -1.5714 -1.5998
C -1.6276 -1.5705 -1.5947
C -1.6270 -1.5645 -1.5932
C -1.6252 -1.5749 -1.5954
C -1.6248 -1.5793 -1.5969
C -1.6244 -1.5741 -1.5939
C -1.6247 -1.5721 -1.5920
C -1.6256 -1.5790 -1.5948
C -1.6223 -1.5821 -1.5851
C -1.6318 -1.5668 -1.5972
C -1.6290 -1.5597 -1.6025
C -1.6330 -1.5676 -1.5896
C -1.6375 -1.5627 -1.6006
C -1.6259 -1.5897 -1.6038
C -1.6211 -1.5963 -1.6037
C -1.6199 -1.5710 -1.5938
C -1.6160 -1.5708 -1.5971
C -1.6201 -1.5685 -1.5905
C -1.6230 -1.5674 -1.5883
C -1.6156 -1.5652 -1.5891
C -1.6124 -1.5632 -1.5878
C -1.6178 -1.5598 -1.5848
C -1.6224 -1.5599 -1.5835
C -1.6161 -1.5582 -1.5827
C -1.6199 -1.5559 -1.5819
C -1.6250 -1.5563 -1.5855
C -1.6285 -1.5592 -1.5913
C -1.6251 -1.5525 -1.5808
C -1.6282 -1.5517 -1.5819
C -1.6202 -1.5494 -1.5738
C -1.6191 -1.5456 -1.5660
C -1.6222 -1.5440 -1.5651
C -1.6151 -1.5429 -1.5592
C -1.6144 -1.5391 -1.5538
C -1.6116 -1.5448 -1.5596
C -1.6092 -1.5438 -1.5544
C -1.6126 -1.5493 -1.5668
C -1.6103 -1.5507 -1.5662
C -1.6169 -1.5515 -1.5743
C -1.6133 -1.5672 -1.5909
C -1.6159 -1.5696 -1.5935
C -1.6081 -1.5666 -1.5904
C -1.6060 -1.5646 -1.5887
C -1.6039 -1.5687 -1.5898
C -1.5997 -1.5671 -1.5907
C -1.6050 -1.5679 -1.5893
C -1.6053 -1.5748 -1.5909
C -1.6060 -1.5770 -1.5914
C -1.6068 -1.5769 -1.5916
138
REAL frame=164
C -1.6179 -1.5828 -1.5925
C -1.6189 -1.5802 -1.5928
C -1.6163 -1.5822 -1.5922
C -1.6204 -1.5833 -1.5900
C -1.6154 -1.5851 -1.5942
C -1.6123 -1.5861 -1.5953
C -1.6168 -1.5881 -1.5958
C -1.6157 -1.5842 -1.5926
C -1.6194 -1.5862 -1.5910
C -1.6115 -1.5803 -1.5928
C -1.6085 -1.5783 -1.5933
C -1.6122 -1.5789 -1.5943
C -1.6138 -1.5756 -1.5925
C -1.6076 -1.5759 -1.5961
C -1.6044 -1.5696 -1.5951
C -1.6064 -1.5802 -1.5970
C -1.6109 -1.5735 -1.6005
C -1.6109 -1.5817 -1.6047
C -1.6083 -1.5891 -1.6043
C -1.6142 -1.5803 -1.6088
C -1.6137 -1.5869 -1.6118
C -1.6199 -1.5701 -1.6090
C -1.6234 -1.5680 -1.6124
C -1.6269 -1.5654 -1.6027
C -1.6214 -1.5616 -1.6050
C -1.6257 -1.5538 -1.6047
C -1.6169 -1.5633 -1.6004
C -1.6190 -1.5564 -1.5972
C -1.6145 -1.5849 -1.5965
C -1.6165 -1.5917 -1.5958
C -1.6142 -1.5833 -1.6001
C -1.6138 -1.5784 -1.5987
C -1.6151 -1.5881 -1.6037
C -1.6107 -1.5879 -1.6078
C -1.6187 -1.5949 -1.6055
C -1.6165 -1.5974 -1.6056
C -1.6190 -1.5994 -1.6059
C -1.6239 -1.5900 -1.6045
C -1.6222 -1.5831 -1.6041
C -1.6317 -1.5937 -1.6030
C -1.6169 -1.5853 -1.6013
C -1.6198 -1.5827 -1.5991
C -1.6176 -1.5858 -1.6020
C -1.6126 -1.5896 -1.6059
C -1.6123 -1.5960 -1.6092
C -1.6064 -1.5857 -1.6055
C -1.6165 -1.5893 -1.6048
C -1.6206 -1.5943 -1.6051
C -1.6121 -1.5870 -1.6069
C -1.6198 -1.5826 -1.6024
C -1.6246 -1.5827 -1.6004
C -1.6161 -1.5773 -1.6042
C -1.6209 -1.5824 -1.6008
C -1.6195 -1.5786 -1.5995
C -1.6283 -1.5849 -1.5984
C -1.6301 -1.5817 -1.5961
C -1.6323 -1.5889 -1.6002
C -1.6309 -1.5908 -1.6018
C -1.6386 -1.5898 -1.5985
C -1.6412 -1.5879 -1.5979
C -1.6401 -1.5961 -1.5994
C -1.6391 -1.5989 -1.6012
C -1.6448 -1.5982 -1.5970
C -1.6391 -1.5983 -1.6024
C -1.6370 -1.5997 -1.6037
C -1.6414 -1.6001 -1.6031
C -1.6371 -1.5957 -1.6014
C -1.6318 -1.5955 -1.6012
C -1.6412 -1.5933 -1.6011
C -1.6408 -1.5860 -1.5964
C -1.6452 -1.5834 -1.5951
C -1.6378 -1.5858 -1.5966
C -1.6374 -1.5883 -1.5969
C -1.6413 -1.5833 -1.5944
C -1.6459 -1.5797 -1.5915
C -1.6446 -1.5896 -1.5962
C -1.6483 -1.5875 -1.5948
C -1.6485 -1.5916 -1.5958
C -1.6431 -1.5859 -1.5989
C -1.6527 -1.5919 -1.5868
C -1.6514 -1.6006 -1.6022
C -1.6402 -1.5952 -1.5983
C -1.6383 -1.5977 -1.5998
C -1.6373 -1.5800 -1.5949
C -1.6388 -1.5828 -1.5969
C -1.6320 -1.5734 -1.5937
C -1.6308 -1.5716 -1.5932
C -1.6290 -1.5730 -1.5969
C -1.6301 -1.5767 -1.5982
C -1.6268 -1.5714 -1.5997
C -1.6276 -1.5705 -1.5946
C -1.6270 -1.5645 -1.5932
C -1.6252 -1.5751 -1.5954
C -1.6249 -1.5789 -1.5971
C -1.6245 -1.5739 -1.5939
C -1.6251 -1.5719 -1.5919
C -1.6257 -1.5791 -1.5950
C -1.6224 -1.5822 -1.5853
C -1.6318 -1.5667 -1.5972
C -1.6290 -1.5596 -1.6026
C -1.6331 -1.5678 -1.5897
C -1.6373 -1.5631 -1.6004
C -1.6259 -1.5896 -1.6037
C -1.6211 -1.5964 -1.6034
C -1.6200 -1.5707 -1.5940
C -1.6160 -1.5709 -1.5969
C -1.6200 -1.5684 -1.5903
C -1.6231 -1.5674 -1.5881
C -1.6157 -1.5650 -1.5890
C -1.6123 -1.5634 -1.5877
C -1.6179 -1.5598 -1.5847
C -1.6228 -1.5598 -1.5839
C -1.6159 -1.5579 -1.5829
C -1.6199 -1.5560 -1.5817
C -1.6250 -1.5563 -1.5855
C -1.6282 -1.5590 -1.5913
C -1.6250 -1.5525 -1.5808
C -1.6278 -1.5518 -1.5821
C -1.6203 -1.5495 -1.5738
C -1.6192 -1.5457 -1.5662
C -1.6226 -1.5440 -1.5647
C -1.6152 -1.5429 -1.5590
C -1.6142 -1.5391 -1.5536
C -1.6116 -1.5447 -1.5598
C -1.6089 -1.5436 -1.5545
C -1.6126 -1.5493 -1.5669
C -1.6106 -1.5507 -1.5658
C -1.6169 -1.5516 -1.5743
C -1.6134 -1.5671 -1.5910
C -1.6158 -1.5695 -1.5935
C -1.6080 -1.5666 -1.5904
C -1.6061 -1.5645 -1.5893
C -1.6039 -1.5688 -1.5897
C -1.5997 -1.5673 -1.5907
C -1.6047 -1.5677 -1.5889
C -1.6054 -1.5748 -1.5908
C -1.6062 -1.5771 -1.5915
C -1.6068 -1.5770 -1.5917
138
REAL frame=165
C -1.6179 -1.5829 -1.5924
C -1.6191 -1.5805 -1.5929
C -1.6161 -1.5823 -1.5931
C -1.6205 -1.5834 -1.5901
C -1.6153 -1.5851 -1.5943
C -1.6123 -1.5861 -1.5956
C -1.6170 -1.5877 -1.5954
C -1.6158 -1.5841 -1.5925
C -1.6195 -1.5862 -1.5910
C -1.6115 -1.5802 -1.5928
C -1.6081 -1.5778 -1.5936
C -1.6120 -1.5789 -1.5943
C -1.6139 -1.5757 -1.5923
C -1.6078 -1.5759 -1.5962
C -1.6048 -1.5696 -1.5948
C -1.6063 -1.5802 -1.5968
C -1.6109 -1.5734 -1.6006
C -1.6110 -1.5816 -1.6047
C -1.6078 -1.5891 -1.6046
C -1.6141 -1.5802 -1.6089
C -1.6135 -1.5873 -1.6118
C -1.6197 -1.5701 -1.6090
C -1.6234 -1.5680 -1.6125
C -1.6266 -1.5655 -1.6024
C -1.6214 -1.5615 -1.6049
C -1.6260 -1.5536 -1.6048
C -1.6167 -1.5634 -1.6005
C -1.6193 -1.5564 -1.5973
C -1.6146 -1.5850 -1.5966
C -1.6164 -1.5917 -1.5958
C -1.6143 -1.5833 -1.6001
C -1.6139 -1.5784 -1.5988
C -1.6150 -1.5882 -1.6036
C -1.6111 -1.5885 -1.6075
C -1.6187 -1.5948 -1.6054
C -1.6163 -1.5979 -1.6060
C -1.6192 -1.5993 -1.6059
C -1.6240 -1.5901 -1.6043
C -1.6221 -1.5830 -1.6040
C -1.6316 -1.5936 -1.6030
C -1.6168 -1.5853 -1.6014
C -1.6197 -1.5827 -1.5991
C -1.6178 -1.5857 -1.6020
C -1.6126 -1.5895 -1.6058
C -1.6121 -1.5962 -1.6087
C -1.6065 -1.5857 -1.6059
C -1.6166 -1.5893 -1.6048
C -1.6207 -1.5941 -1.6049
C -1.6124 -1.5870 -1.6070
C -1.6199 -1.5825 -1.6025
C -1.6246 -1.5825 -1.6003
C -1.6161 -1.5772 -1.6041
C -1.6209 -1.5825 -1.6007
C -1.6197 -1.5786 -1.5989
C -1.6282 -1.5849 -1.5985
C -1.6301 -1.5818 -1.5961
C -1.6322 -1.5890 -1.6002
C -1.6311 -1.5910 -1.6020
C -1.6386 -1.5899 -1.5985
C -1.6412 -1.5881 -1.5982
C -1.6402 -1.5962 -1.5996
C -1.6388 -1.5988 -1.6009
C -1.6446 -1.5981 -1.5969
C -1.6391 -1.5983 -1.6024
C -1.6373 -1.5996 -1.6040
C -1.6414 -1.6001 -1.6032
C -1.6371 -1.5960 -1.6013
C -1.6319 -1.5955 -1.6012
C -1.6412 -1.5930 -1.6011
C -1.6408 -1.5860 -1.5966
C -1.6451 -1.5834 -1.5951
C -1.6378 -1.5858 -1.5966
C -1.6370 -1.5881 -1.5976
C -1.6412 -1.5833 -1.5943
C -1.6461 -1.5797 -1.5913
C -1.6447 -1.5896 -1.5962
C -1.6476 -1.5869 -1.5948
C -1.6485 -1.5917 -1.5957
C -1.6431 -1.5861 -1.5986
C -1.6530 -1.5915 -1.5869
C -1.6511 -1.5998 -1.6025
C -1.6402 -1.5951 -1.5981
C -1.6383 -1.5976 -1.5997
C -1.6373 -1.5800 -1.5949
C -1.6388 -1.5828 -1.5970
C -1.6320 -1.5734 -1.5939
C -1.6311 -1.5716 -1.5933
C -1.6289 -1.5729 -1.5969
C -1.6300 -1.5767 -1.5980
C -1.6268 -1.5712 -1.5997
C -1.6275 -1.5705 -1.5945
C -1.6270 -1.5645 -1.5932
C -1.6252 -1.5752 -1.5955
C -1.6251 -1.5786 -1.5971
C -1.6245 -1.5738 -1.5938
C -1.6258 -1.5717 -1.5918
C -1.6258 -1.5792 -1.5951
C -1.6225 -1.5825 -1.5858
C -1.6317 -1.5666 -1.5973
C -1.6290 -1.5595 -1.6027
C -1.6332 -1.5682 -1.5898
C -1.6371 -1.5635 -1.6002
C -1.6259 -1.5896 -1.6037
C -1.6212 -1.5966 -1.6034
C -1.6200 -1.5705 -1.5942
C -1.6161 -1.5709 -1.5967
C -1.6199 -1.5683 -1.5901
C -1.6230 -1.5674 -1.5878
C -1.6157 -1.5648 -1.5889
C -1.6123 -1.5637 -1.5879
C -1.6181 -1.5599 -1.5847
C -1.6232 -1.5600 -1.5842
C -1.6158 -1.5574 -1.5832
C -1.6199 -1.5561 -1.5816
C -1.6250 -1.5562 -1.5855
C -1.6279 -1.5588 -1.5914
C -1.6248 -1.5526 -1.5808
C -1.6276 -1.5519 -1.5823
C -1.6203 -1.5496 -1.5737
C -1.6192 -1.5456 -1.5663
C -1.6229 -1.5440 -1.5647
C -1.6153 -1.5429 -1.5588
C -1.6140 -1.5393 -1.5532
C -1.6117 -1.5447 -1.5600
C -1.6086 -1.5432 -1.5545
C -1.6126 -1.5494 -1.5670
C -1.6108 -1.5507 -1.5656
C -1.6169 -1.5517 -1.5742
C -1.6134 -1.5670 -1.5910
C -1.6158 -1.5695 -1.5935
C -1.6080 -1.5666 -1.5904
C -1.6063 -1.5645 -1.5899
C -1.6039 -1.5689 -1.5896
C -1.5997 -1.5674 -1.5906
C -1.6043 -1.5675 -1.5885
C -1.6056 -1.5748 -1.5907
C -1.6063 -1.5772 -1.5917
C -1.6068 -1.5770 -1.5918
138
REAL frame=166
C -1.6179 -1.5829 -1.5923
C -1.6192 -1.5806 -1.5929
C -1.6160 -1.5824 -1.5937
C -1.6205 -1.5837 -1.5904
C -1.6152 -1.5851 -1.5944
C -1.6121 -1.5859 -1.5958
C -1.6172 -1.5871 -1.5950
C -1.6157 -1.5840 -1.5925
C -1.6195 -1.5862 -1.5909
C -1.6115 -1.5802 -1.5929
C -1.6078 -1.5773 -1.5938
C -1.6119 -1.5789 -1.5943
C -1.6140 -1.5759 -1.5921
C -1.6079 -1.5758 -1.5962
C -1.6053 -1.5695 -1.5943
C -1.6061 -1.5802 -1.5966
C -1.6110 -1.5733 -1.6007
C -1.6110 -1.5816 -1.6047
C -1.6072 -1.5890 -1.6048
C -1.6141 -1.5802 -1.6089
C -1.6133 -1.5875 -1.6118
C -1.6194 -1.5701 -1.6091
C -1.6235 -1.5680 -1.6125
C -1.6262 -1.5652 -1.6024
C -1.6215 -1.5615 -1.6048
C -1.6264 -1.5534 -1.6050
C -1.6166 -1.5634 -1.6006
C -1.6195 -1.5566 -1.5974
C -1.6147 -1.5851 -1.5967
C -1.6163 -1.5916 -1.5958
C -1.6144 -1.5833 -1.6002
C -1.6138 -1.5784 -1.5989
C -1.6149 -1.5882 -1.6036
C -1.6115 -1.5891 -1.6072
C -1.6186 -1.5948 -1.6053
C -1.6163 -1.5986 -1.6062
C -1.6194 -1.5993 -1.6061
C -1.6240 -1.5902 -1.6041
C -1.6221 -1.5830 -1.6039
C -1.6315 -1.5936 -1.6030
C -1.6169 -1.5853 -1.6015
C -1.6197 -1.5826 -1.5990
C -1.6180 -1.5857 -1.6020
C -1.6126 -1.5894 -1.6057
C -1.6119 -1.5962 -1.6079
C -1.6066 -1.5856 -1.6065
C -1.6167 -1.5893 -1.6048
C -1.6208 -1.5938 -1.6046
C -1.6128 -1.5874 -1.6070
C -1.6199 -1.5824 -1.6025
C -1.6247 -1.5824 -1.6003
C -1.6161 -1.5771 -1.6040
C -1.6209 -1.5825 -1.6005
C -1.6199 -1.5783 -1.5985
C -1.6282 -1.5848 -1.5986
C -1.6302 -1.5819 -1.5961
C -1.6321 -1.5892 -1.6002
C -1.6311 -1.5912 -1.6023
C -1.6386 -1.5900 -1.5985
C -1.6412 -1.5884 -1.5985
C -1.6404 -1.5963 -1.5998
C -1.6384 -1.5987 -1.6006
C -1.6444 -1.5979 -1.5970
C -1.6391 -1.5982 -1.6024
C -1.6375 -1.5996 -1.6042
C -1.6414 -1.6001 -1.6033
C -1.6371 -1.5962 -1.6012
C -1.6321 -1.5954 -1.6013
C -1.6412 -1.5928 -1.6012
C -1.6408 -1.5860 -1.5967
C -1.6450 -1.5834 -1.5950
C -1.6379 -1.5857 -1.5965
C -1.6363 -1.5879 -1.5982
C -1.6412 -1.5833 -1.5943
C -1.6461 -1.5796 -1.5915
C -1.6447 -1.5896 -1.5961
C -1.6468 -1.5866 -1.5948
C -1.6485 -1.5918 -1.5956
C -1.6431 -1.5862 -1.5984
C -1.6531 -1.5913 -1.5870
C -1.6510 -1.5988 -1.6028
C -1.6401 -1.5951 -1.5980
C -1.6383 -1.5975 -1.5996
C -1.6373 -1.5800 -1.5949
C -1.6389 -1.5828 -1.5969
C -1.6321 -1.5734 -1.5941
C -1.6315 -1.5714 -1.5934
C -1.6289 -1.5728 -1.5969
C -1.6299 -1.5768 -1.5978
C -1.6268 -1.5709 -1.5998
C -1.6274 -1.5705 -1.5944
C -1.6271 -1.5645 -1.5933
C -1.6252 -1.5754 -1.5955
C -1.6253 -1.5785 -1.5971
C -1.6245 -1.5736 -1.5937
C -1.6266 -1.5714 -1.5918
C -1.6258 -1.5792 -1.5951
C -1.6227 -1.5828 -1.5865
C -1.6317 -1.5665 -1.5973
C -1.6290 -1.5594 -1.6029
C -1.6333 -1.5685 -1.5899
C -1.6369 -1.5639 -1.6000
C -1.6258 -1.5896 -1.6036
C -1.6216 -1.5966 -1.6038
C -1.6200 -1.5703 -1.5943
C -1.6162 -1.5710 -1.5966
C -1.6199 -1.5681 -1.5900
C -1.6228 -1.5676 -1.5874
C -1.6157 -1.5646 -1.5887
C -1.6126 -1.5639 -1.5883
C -1.6183 -1.5598 -1.5846
C -1.6233 -1.5605 -1.5844
C -1.6157 -1.5570 -1.5836
C -1.6199 -1.5562 -1.5816
C -1.6250 -1.5562 -1.5855
C -1.6276 -1.5586 -1.5914
C -1.6247 -1.5525 -1.5809
C -1.6273 -1.5520 -1.5827
C -1.6203 -1.5496 -1.5736
C -1.6192 -1.5456 -1.5664
C -1.6231 -1.5440 -1.5651
C -1.6154 -1.5429 -1.5587
C -1.6140 -1.5396 -1.5529
C -1.6117 -1.5447 -1.5602
C -1.6082 -1.5428 -1.5544
C -1.6126 -1.5494 -1.5670
C -1.6110 -1.5507 -1.5658
C -1.6169 -1.5518 -1.5741
C -1.6134 -1.5670 -1.5912
C -1.6158 -1.5695 -1.5935
C -1.6080 -1.5665 -1.5903
C -1.6063 -1.5645 -1.5904
C -1.6040 -1.5691 -1.5896
C -1.5997 -1.5675 -1.5904
C -1.6040 -1.5672 -1.5881
C -1.6058 -1.5747 -1.5906
C -1.6065 -1.5773 -1.5917
C -1.6067 -1.5770 -1.5918
138
REAL frame=167
C -1.6179 -1.5829 -1.5923
C -1.6192 -1.5807 -1.5927
C -1.6160 -1.5824 -1.5940
C -1.6204 -1.5840 -1.5909
C -1.6152 -1.5852 -1.5945
C -1.6119 -1.5857 -1.5960
C -1.6175 -1.5865 -1.5949
C -1.6157 -1.5839 -1.5924
C -1.6196 -1.5862 -1.5909
C -1.6115 -1.5801 -1.5930
C -1.6077 -1.5770 -1.5939
C -1.6118 -1.5789 -1.5942
C -1.6140 -1.5761 -1.5919
C -1.6080 -1.5756 -1.5963
C -1.6059 -1.5695 -1.5939
C -1.6058 -1.5802 -1.5965
C -1.6111 -1.5733 -1.6008
C -1.6110 -1.5815 -1.6047
C -1.6067 -1.5890 -1.6048
C -1.6141 -1.5801 -1.6090
C -1.6130 -1.5873 -1.6120
C -1.6192 -1.5701 -1.6091
C -1.6235 -1.5680 -1.6125
C -1.6257 -1.5646 -1.6027
C -1.6215 -1.5614 -1.6047
C -1.6268 -1.5533 -1.6050
C -1.6165 -1.5633 -1.6007
C -1.6195 -1.5568 -1.5974
C -1.6148 -1.5852 -1.5969
C -1.6162 -1.5915 -1.5958
C -1.6145 -1.5833 -1.6001
C -1.6137 -1.5783 -1.5990
C -1.6149 -1.5882 -1.6037
C -1.6118 -1.5896 -1.6069
C -1.6186 -1.5947 -1.6051
C -1.6163 -1.5993 -1.6062
C -1.6196 -1.5992 -1.6066
C -1.6241 -1.5902 -1.6039
C -1.6220 -1.5829 -1.6039
C -1.6315 -1.5935 -1.6030
C -1.6170 -1.5853 -1.6016
C -1.6196 -1.5826 -1.5989
C -1.6182 -1.5857 -1.6021
C -1.6127 -1.5894 -1.6055
C -1.6118 -1.5962 -1.6070
C -1.6068 -1.5854 -1.6071
C -1.6167 -1.5892 -1.6049
C -1.6208 -1.5937 -1.6042
C -1.6132 -1.5880 -1.6070
C -1.6200 -1.5823 -1.6025
C -1.6248 -1.5824 -1.6004
C -1.6161 -1.5771 -1.6038
C -1.6210 -1.5826 -1.6003
C -1.6202 -1.5778 -1.5984
C -1.6282 -1.5847 -1.5986
C -1.6304 -1.5820 -1.5961
C -1.6320 -1.5892 -1.6001
C -1.6309 -1.5914 -1.6027
C -1.6386 -1.5901 -1.5986
C -1.6411 -1.5886 -1.5988
C -1.6405 -1.5964 -1.6000
C -1.6381 -1.5986 -1.6003
C -1.6442 -1.5976 -1.5971
C -1.6391 -1.5982 -1.6024
C -1.6376 -1.5995 -1.6045
C -1.6414 -1.6001 -1.6034
C -1.6372 -1.5962 -1.6011
C -1.6322 -1.5954 -1.6013
C -1.6412 -1.5928 -1.6012
C -1.6407 -1.5861 -1.5969
C -1.6449 -1.5834 -1.5950
C -1.6380 -1.5856 -1.5965
C -1.6354 -1.5877 -1.5987
C -1.6413 -1.5833 -1.5943
C -1.6457 -1.5795 -1.5918
C -1.6447 -1.5895 -1.5960
C -1.6461 -1.5865 -1.5948
C -1.6486 -1.5919 -1.5956
C -1.6432 -1.5862 -1.5981
C -1.6532 -1.5912 -1.5871
C -1.6511 -1.5977 -1.6030
C -1.6400 -1.5950 -1.5979
C -1.6382 -1.5972 -1.5995
C -1.6372 -1.5799 -1.5949
C -1.6389 -1.5829 -1.5969
C -1.6321 -1.5734 -1.5943
C -1.6319 -1.5712 -1.5934
C -1.6289 -1.5726 -1.5968
C -1.6298 -1.5768 -1.5976
C -1.6271 -1.5705 -1.5998
C -1.6272 -1.5704 -1.5943
C -1.6272 -1.5646 -1.5933
C -1.6253 -1.5755 -1.5955
C -1.6256 -1.5787 -1.5969
C -1.6247 -1.5736 -1.5937
C -1.6272 -1.5711 -1.5920
C -1.6258 -1.5791 -1.5951
C -1.6229 -1.5831 -1.5873
C -1.6316 -1.5665 -1.5974
C -1.6291 -1.5594 -1.6032
C -1.6333 -1.5687 -1.5900
C -1.6368 -1.5641 -1.5999
C -1.6258 -1.5896 -1.6035
C -1.6220 -1.5967 -1.6043
C -1.6200 -1.5701 -1.5942
C -1.6163 -1.5711 -1.5965
C -1.6200 -1.5679 -1.5900
C -1.6226 -1.5678 -1.5869
C -1.6157 -1.5644 -1.5885
C -1.6129 -1.5641 -1.5887
C -1.6185 -1.5598 -1.5845
C -1.6232 -1.5612 -1.5844
C -1.6157 -1.5567 -1.5839
C -1.6199 -1.5564 -1.5816
C -1.6250 -1.5562 -1.5855
C -1.6274 -1.5584 -1.5914
C -1.6246 -1.5525 -1.5810
C -1.6271 -1.5521 -1.5830
C -1.6203 -1.5497 -1.5734
C -1.6193 -1.5455 -1.5664
C -1.6232 -1.5439 -1.5659
C -1.6154 -1.5428 -1.5588
C -1.6140 -1.5400 -1.5526
C -1.6117 -1.5448 -1.5602
C -1.6079 -1.5426 -1.5544
C -1.6127 -1.5494 -1.5670
C -1.6110 -1.5508 -1.5663
C -1.6169 -1.5519 -1.5739
C -1.6133 -1.5670 -1.5913
C -1.6159 -1.5694 -1.5935
C -1.6079 -1.5664 -1.5902
C -1.6064 -1.5645 -1.5909
C -1.6041 -1.5692 -1.5896
C -1.5997 -1.5676 -1.5902
C -1.6038 -1.5670 -1.5879
C -1.6060 -1.5747 -1.5906
C -1.6067 -1.5774 -1.5918
C -1.6067 -1.5771 -1.5919
138
REAL frame=168
C -1.6178 -1.5830 -1.5923
C -1.6189 -1.5806 -1.5925
C -1.6160 -1.5823 -1.5938
C -1.6201 -1.5843 -1.5914
C -1.6152 -1.5852 -1.5945
C -1.6116 -1.5855 -1.5959
C -1.6177 -1.5859 -1.5951
C -1.6155 -1.5838 -1.5924
C -1.6197 -1.5862 -1.5908
C -1.6115 -1.5800 -1.5931
C -1.6077 -1.5769 -1.5937
C -1.6117 -1.5789 -1.5942
C -1.6139 -1.5762 -1.5917
C -1.6081 -1.5754 -1.5964
C -1.6065 -1.5694 -1.5936
C -1.6055 -1.5800 -1.5965
C -1.6111 -1.5733 -1.6009
C -1.6109 -1.5815 -1.6046
C -1.6063 -1.5890 -1.6047
C -1.6141 -1.5801 -1.6091
C -1.6127 -1.5869 -1.6121
C -1.6190 -1.5701 -1.6091
C -1.6236 -1.5680 -1.6125
C -1.6251 -1.5639 -1.6032
C -1.6215 -1.5614 -1.6047
C -1.6271 -1.5532 -1.6050
C -1.6164 -1.5633 -1.6008
C -1.6192 -1.5572 -1.5975
C -1.6148 -1.5853 -1.5970
C -1.6162 -1.5914 -1.5959
C -1.6145 -1.5834 -1.6001
C -1.6136 -1.5781 -1.5993
C -1.6148 -1.5882 -1.6038
C -1.6119 -1.5900 -1.6067
C -1.6185 -1.5946 -1.6050
C -1.6165 -1.5999 -1.6061
C -1.6196 -1.5992 -1.6071
C -1.6242 -1.5902 -1.6037
C -1.6220 -1.5829 -1.6038
C -1.6314 -1.5935 -1.6030
C -1.6171 -1.5854 -1.6017
C -1.6195 -1.5825 -1.5989
C -1.6183 -1.5858 -1.6022
C -1.6127 -1.5893 -1.6054
C -1.6117 -1.5961 -1.6062
C -1.6069 -1.5850 -1.6076
C -1.6168 -1.5891 -1.6050
C -1.6209 -1.5936 -1.6037
C -1.6137 -1.5888 -1.6069
C -1.6200 -1.5823 -1.6024
C -1.6250 -1.5826 -1.6006
C -1.6160 -1.5772 -1.6036
C -1.6211 -1.5827 -1.6002
C -1.6204 -1.5773 -1.5985
C -1.6282 -1.5846 -1.5987
C -1.6305 -1.5821 -1.5961
C -1.6319 -1.5893 -1.6000
C -1.6307 -1.5915 -1.6031
C -1.6385 -1.5903 -1.5987
C -1.6408 -1.5888 -1.5988
C -1.6405 -1.5965 -1.6001
C -1.6379 -1.5986 -1.6002
C -1.6440 -1.5973 -1.5974
C -1.6391 -1.5982 -1.6023
C -1.6377 -1.5994 -1.6047
C -1.6413 -1.5999 -1.6034
C -1.6372 -1.5960 -1.6011
C -1.6324 -1.5954 -1.6013
C -1.6412 -1.5928 -1.6012
C -1.6407 -1.5861 -1.5970
C -1.6448 -1.5834 -1.5950
C -1.6381 -1.5856 -1.5964
C -1.6344 -1.5875 -1.5987
C -1.6414 -1.5833 -1.5945
C -1.6452 -1.5795 -1.5922
C -1.6446 -1.5895 -1.5959
C -1.6456 -1.5867 -1.5946
C -1.6486 -1.5919 -1.5957
C -1.6434 -1.5863 -1.5976
C -1.6532 -1.5913 -1.5871
C -1.6514 -1.5967 -1.6030
C -1.6400 -1.5949 -1.5978
C -1.6382 -1.5969 -1.5994
C -1.6371 -1.5798 -1.5950
C -1.6390 -1.5830 -1.5968
C -1.6322 -1.5735 -1.5945
C -1.6322 -1.5709 -1.5933
C -1.6289 -1.5725 -1.5967
C -1.6296 -1.5768 -1.5974
C -1.6273 -1.5700 -1.5999
C -1.6271 -1.5704 -1.5944
C -1.6272 -1.5646 -1.5933
C -1.6253 -1.5755 -1.5956
C -1.6259 -1.5790 -1.5967
C -1.6248 -1.5735 -1.5937
C -1.6277 -1.5707 -1.5923
C -1.6258 -1.5790 -1.5951
C -1.6230 -1.5832 -1.5879
C -1.6316 -1.5665 -1.5974
C -1.6292 -1.5595 -1.6033
C -1.6331 -1.5687 -1.5901
C -1.6367 -1.5641 -1.5998
C -1.6257 -1.5896 -1.6035
C -1.6224 -1.5966 -1.6048
C -1.6199 -1.5700 -1.5940
C -1.6164 -1.5712 -1.5965
C -1.6201 -1.5677 -1.5899
C -1.6225 -1.5679 -1.5866
C -1.6156 -1.5643 -1.5884
C -1.6132 -1.5639 -1.5889
C -1.6186 -1.5597 -1.5844
C -1.6229 -1.5620 -1.5842
C -1.6158 -1.5565 -1.5842
C -1.6199 -1.5564 -1.5817
C -1.6250 -1.5562 -1.5855
C -1.6274 -1.5584 -1.5915
C -1.6245 -1.5525 -1.5810
C -1.6269 -1.5522 -1.5832
C -1.6203 -1.5498 -1.5733
C -1.6194 -1.5453 -1.5663
C -1.6230 -1.5439 -1.5669
C -1.6154 -1.5428 -1.5589
C -1.6141 -1.5404 -1.5525
C -1.6118 -1.5448 -1.5602
C -1.6076 -1.5426 -1.5544
C -1.6127 -1.5494 -1.5670
C -1.6110 -1.5509 -1.5669
C -1.6169 -1.5520 -1.5738
C -1.6132 -1.5669 -1.5914
C -1.6159 -1.5694 -1.5934
C -1.6079 -1.5663 -1.5902
C -1.6065 -1.5646 -1.5912
C -1.6042 -1.5692 -1.5896
C -1.5998 -1.5677 -1.5901
C -1.6037 -1.5670 -1.5878
C -1.6061 -1.5746 -1.5907
C -1.6069 -1.5776 -1.5918
C -1.6067 -1.5771 -1.5919
138
REAL frame=169
C -1.6178 -1.5830 -1.5924
C -1.6185 -1.5806 -1.5921
C -1.6160 -1.5822 -1.5932
C -1.6197 -1.5846 -1.5919
C -1.6152 -1.5852 -1.5945
C -1.6115 -1.5853 -1.5958
C -1.6177 -1.5856 -1.5956
C -1.6154 -1.5838 -1.5924
C -1.6197 -1.5861 -1.5907
C -1.6115 -1.5800 -1.5932
C -1.6078 -1.5770 -1.5934
C -1.6119 -1.5789 -1.5941
C -1.6137 -1.5762 -1.5917
C -1.6082 -1.5751 -1.5965
C -1.6068 -1.5691 -1.5934
C -1.6052 -1.5798 -1.5965
C -1.6112 -1.5734 -1.6009
C -1.6108 -1.5814 -1.6047
C -1.6060 -1.5891 -1.6045
C -1.6141 -1.5801 -1.6092
C -1.6124 -1.5863 -1.6123
C -1.6188 -1.5701 -1.6091
C -1.6236 -1.5680 -1.6126
C -1.6244 -1.5632 -1.6039
C -1.6215 -1.5613 -1.6047
C -1.6273 -1.5533 -1.6048
C -1.6164 -1.5633 -1.6009
C -1.6188 -1.5574 -1.5975
C -1.6148 -1.5853 -1.5971
C -1.6161 -1.5914 -1.5959
C -1.6146 -1.5835 -1.6000
C -1.6134 -1.5780 -1.5995
C -1.6148 -1.5882 -1.6038
C -1.6119 -1.5900 -1.6067
C -1.6184 -1.5946 -1.6048
C -1.6168 -1.6001 -1.6058
C -1.6194 -1.5993 -1.6074
C -1.6243 -1.5902 -1.6035
C -1.6219 -1.5829 -1.6038
C -1.6314 -1.5934 -1.6030
C -1.6173 -1.5854 -1.6018
C -1.6194 -1.5825 -1.5988
C -1.6183 -1.5858 -1.6023
C -1.6128 -1.5892 -1.6053
C -1.6117 -1.5959 -1.6056
C -1.6070 -1.5846 -1.6078
C -1.6169 -1.5890 -1.6050
C -1.6209 -1.5936 -1.6033
C -1.6142 -1.5895 -1.6067
C -1.6200 -1.5822 -1.6023
C -1.6251 -1.5828 -1.6008
C -1.6160 -1.5772 -1.6034
C -1.6212 -1.5827 -1.6000
C -1.6205 -1.5770 -1.5988
C -1.6282 -1.5846 -1.5986
C -1.6306 -1.5821 -1.5962
C -1.6318 -1.5893 -1.5999
C -1.6304 -1.5916 -1.6034
C -1.6385 -1.5904 -1.5989
C -1.6405 -1.5888 -1.5988
C -1.6405 -1.5966 -1.6001
C -1.6380 -1.5987 -1.6003
C -1.6439 -1.5971 -1.5978
C -1.6391 -1.5982 -1.6023
C -1.6375 -1.5993 -1.6048
C -1.6413 -1.5996 -1.6033
C -1.6373 -1.5956 -1.6011
C -1.6325 -1.5954 -1.6013
C -1.6412 -1.5929 -1.6012
C -1.6407 -1.5861 -1.5970
C -1.6448 -1.5834 -1.5950
C -1.6382 -1.5856 -1.5965
C -1.6334 -1.5875 -1.5983
C -1.6415 -1.5833 -1.5946
C -1.6446 -1.5795 -1.5928
C -1.6445 -1.5895 -1.5957
C -1.6455 -1.5870 -1.5944
C -1.6487 -1.5919 -1.5958
C -1.6436 -1.5863 -1.5971
C -1.6532 -1.5917 -1.5871
C -1.6517 -1.5960 -1.6031
C -1.6399 -1.5948 -1.5977
C -1.6383 -1.5966 -1.5994
C -1.6370 -1.5797 -1.5951
C -1.6389 -1.5831 -1.5968
C -1.6322 -1.5736 -1.5946
C -1.6323 -1.5708 -1.5932
C -1.6289 -1.5724 -1.5967
C -1.6294 -1.5768 -1.5973
C -1.6277 -1.5695 -1.6000
C -1.6270 -1.5704 -1.5946
C -1.6273 -1.5647 -1.5932
C -1.6254 -1.5754 -1.5956
C -1.6261 -1.5794 -1.5964
C -1.6250 -1.5736 -1.5937
C -1.6278 -1.5704 -1.5927
C -1.6257 -1.5789 -1.5951
C -1.6230 -1.5832 -1.5883
C -1.6316 -1.5666 -1.5975
C -1.6295 -1.5596 -1.6034
C -1.6328 -1.5685 -1.5901
C -1.6368 -1.5640 -1.5999
C -1.6257 -1.5896 -1.6035
C -1.6226 -1.5964 -1.6052
C -1.6198 -1.5699 -1.5937
C -1.6164 -1.5713 -1.5965
C -1.6201 -1.5674 -1.5899
C -1.6227 -1.5680 -1.5864
C -1.6156 -1.5642 -1.5883
C -1.6135 -1.5635 -1.5890
C -1.6188 -1.5597 -1.5843
C -1.6224 -1.5626 -1.5838
C -1.6159 -1.5565 -1.5845
C -1.6200 -1.5565 -1.5818
C -1.6249 -1.5563 -1.5856
C -1.6275 -1.5585 -1.5915
C -1.6244 -1.5525 -1.5810
C -1.6267 -1.5522 -1.5832
C -1.6204 -1.5498 -1.5732
C -1.6196 -1.5452 -1.5662
C -1.6228 -1.5439 -1.5677
C -1.6154 -1.5428 -1.5590
C -1.6144 -1.5405 -1.5526
C -1.6118 -1.5449 -1.5601
C -1.6074 -1.5429 -1.5544
C -1.6127 -1.5494 -1.5669
C -1.6108 -1.5509 -1.5674
C -1.6170 -1.5521 -1.5737
C -1.6131 -1.5669 -1.5914
C -1.6160 -1.5694 -1.5934
C -1.6078 -1.5663 -1.5901
C -1.6065 -1.5645 -1.5915
C -1.6043 -1.5692 -1.5896
C -1.5999 -1.5678 -1.5901
C -1.6038 -1.5671 -1.5879
C -1.6063 -1.5746 -1.5908
C -1.6070 -1.5777 -1.5918
C -1.6067 -1.5772 -1.5919
138
REAL frame=170
C -1.6177 -1.5830 -1.5926
C -1.6182 -1.5806 -1.5918
C -1.6162 -1.5822 -1.5924
C -1.6193 -1.5847 -1.5922
C -1.6153 -1.5852 -1.5944
C -1.6115 -1.5853 -1.5956
C -1.6177 -1.5855 -1.5962
C -1.6153 -1.5837 -1.5923
C -1.6198 -1.5861 -1.5906
C -1.6115 -1.5799 -1.5932
C -1.6081 -1.5773 -1.5930
C -1.6120 -1.5789 -1.5941
C -1.6136 -1.5761 -1.5917
C -1.6083 -1.5749 -1.5966
C -1.6069 -1.5686 -1.5935
C -1.6049 -1.5795 -1.5966
C -1.6113 -1.5735 -1.6009
C -1.6107 -1.5814 -1.6047
C -1.6059 -1.5892 -1.6042
C -1.6141 -1.5800 -1.6092
C -1.6121 -1.5857 -1.6125
C -1.6186 -1.5701 -1.6090
C -1.6237 -1.5680 -1.6126
C -1.6237 -1.5627 -1.6045
C -1.6214 -1.5613 -1.6048
C -1.6275 -1.5534 -1.6046
C -1.6164 -1.5633 -1.6009
C -1.6182 -1.5576 -1.5976
C -1.6147 -1.5852 -1.5970
C -1.6161 -1.5913 -1.5961
C -1.6146 -1.5836 -1.5998
C -1.6131 -1.5780 -1.5997
C -1.6148 -1.5882 -1.6039
C -1.6116 -1.5899 -1.6069
C -1.6184 -1.5946 -1.6047
C -1.6171 -1.6000 -1.6053
C -1.6191 -1.5994 -1.6075
C -1.6243 -1.5902 -1.6034
C -1.6219 -1.5829 -1.6038
C -1.6314 -1.5933 -1.6029
C -1.6175 -1.5854 -1.6018
C -1.6194 -1.5825 -1.5988
C -1.6184 -1.5859 -1.6024
C -1.6129 -1.5891 -1.6052
C -1.6118 -1.5957 -1.6053
C -1.6070 -1.5842 -1.6077
C -1.6170 -1.5890 -1.6050
C -1.6209 -1.5936 -1.6030
C -1.6146 -1.5900 -1.6064
C -1.6199 -1.5822 -1.6022
C -1.6252 -1.5830 -1.6010
C -1.6160 -1.5773 -1.6033
C -1.6214 -1.5826 -1.6000
C -1.6206 -1.5768 -1.5991
C -1.6283 -1.5847 -1.5986
C -1.6307 -1.5821 -1.5962
C -1.6318 -1.5893 -1.5999
C -1.6303 -1.5916 -1.6037
C -1.6384 -1.5906 -1.5990
C -1.6402 -1.5889 -1.5987
C -1.6404 -1.5967 -1.6001
C -1.6383 -1.5990 -1.6005
C -1.6439 -1.5970 -1.5983
C -1.6392 -1.5982 -1.6024
C -1.6374 -1.5993 -1.6049
C -1.6414 -1.5994 -1.6031
C -1.6374 -1.5953 -1.6012
C -1.6326 -1.5953 -1.6014
C -1.6412 -1.5930 -1.6011
C -1.6406 -1.5861 -1.5970
C -1.6447 -1.5834 -1.5951
C -1.6383 -1.5856 -1.5965
C -1.6324 -1.5875 -1.5977
C -1.6416 -1.5833 -1.5948
C -1.6442 -1.5795 -1.5934
C -1.6443 -1.5894 -1.5955
C -1.6456 -1.5874 -1.5941
C -1.6487 -1.5919 -1.5958
C -1.6438 -1.5864 -1.5964
C -1.6531 -1.5922 -1.5870
C -1.6519 -1.5956 -1.6031
C -1.6399 -1.5947 -1.5976
C -1.6383 -1.5962 -1.5993
C -1.6370 -1.5796 -1.5951
C -1.6389 -1.5831 -1.5968
C -1.6323 -1.5736 -1.5947
C -1.6321 -1.5706 -1.5932
C -1.6290 -1.5723 -1.5967
C -1.6292 -1.5766 -1.5973
C -1.6279 -1.5691 -1.6000
C -1.6270 -1.5704 -1.5948
C -1.6273 -1.5647 -1.5931
C -1.6254 -1.5753 -1.5956
C -1.6261 -1.5796 -1.5962
C -1.6252 -1.5736 -1.5938
C -1.6278 -1.5702 -1.5929
C -1.6257 -1.5788 -1.5951
C -1.6228 -1.5831 -1.5883
C -1.6316 -1.5666 -1.5975
C -1.6297 -1.5597 -1.6034
C -1.6325 -1.5681 -1.5901
C -1.6369 -1.5639 -1.6000
C -1.6257 -1.5896 -1.6036
C -1.6226 -1.5963 -1.6053
C -1.6197 -1.5698 -1.5934
C -1.6165 -1.5713 -1.5965
C -1.6202 -1.5671 -1.5899
C -1.6231 -1.5679 -1.5865
C -1.6156 -1.5642 -1.5884
C -1.6135 -1.5628 -1.5887
C -1.6190 -1.5597 -1.5842
C -1.6218 -1.5630 -1.5832
C -1.6160 -1.5565 -1.5846
C -1.6200 -1.5564 -1.5818
C -1.6249 -1.5564 -1.5856
C -1.6277 -1.5587 -1.5915
C -1.6242 -1.5526 -1.5810
C -1.6265 -1.5521 -1.5831
C -1.6204 -1.5499 -1.5732
C -1.6197 -1.5451 -1.5662
C -1.6225 -1.5438 -1.5682
C -1.6153 -1.5428 -1.5592
C -1.6146 -1.5404 -1.5528
C -1.6118 -1.5450 -1.5599
C -1.6073 -1.5433 -1.5544
C -1.6128 -1.5494 -1.5669
C -1.6106 -1.5510 -1.5677
C -1.6170 -1.5522 -1.5737
C -1.6131 -1.5668 -1.5914
C -1.6160 -1.5693 -1.5934
C -1.6077 -1.5663 -1.5901
C -1.6065 -1.5645 -1.5916
C -1.6044 -1.5691 -1.5896
C -1.6001 -1.5679 -1.5902
C -1.6042 -1.5674 -1.5882
C -1.6064 -1.5746 -1.5909
C -1.6072 -1.5777 -1.5918
C -1.6067 -1.5773 -1.5919
138
REAL frame=171
C -1.6187 -1.5842 -1.5938
C -1.6189 -1.5818 -1.5926
C -1.6173 -1.5833 -1.5928
C -1.6200 -1.5858 -1.5935
C -1.6164 -1.5861 -1.5955
C -1.6127 -1.5864 -1.5964
C -1.6185 -1.5868 -1.5979
C -1.6163 -1.5847 -1.5934
C -1.6209 -1.5872 -1.5917
C -1.6124 -1.5810 -1.5943
C -1.6093 -1.5787 -1.5938
C -1.6133 -1.5799 -1.5953
C -1.6146 -1.5771 -1.5929
C -1.6094 -1.5758 -1.5977
C -1.6078 -1.5690 -1.5948
C -1.6059 -1.5803 -1.5977
C -1.6124 -1.5745 -1.6020
C -1.6116 -1.5826 -1.6059
C -1.6070 -1.5904 -1.6051
C -1.6151 -1.5810 -1.6103
C -1.6131 -1.5864 -1.6136
C -1.6195 -1.5711 -1.6099
C -1.6248 -1.5691 -1.6137
C -1.6240 -1.5634 -1.6061
C -1.6225 -1.5624 -1.6059
C -1.6286 -1.5546 -1.6054
C -1.6175 -1.5644 -1.6021
C -1.6187 -1.5586 -1.5987
C -1.6157 -1.5861 -1.5980
C -1.6172 -1.5924 -1.5973
C -1.6156 -1.5847 -1.6008
C -1.6139 -1.5792 -1.6009
C -1.6158 -1.5894 -1.6051
C -1.6123 -1.5905 -1.6084
C -1.6194 -1.5958 -1.6057
C -1.6184 -1.6006 -1.6058
C -1.6197 -1.6006 -1.6084
C -1.6253 -1.5913 -1.6044
C -1.6229 -1.5840 -1.6049
C -1.6325 -1.5942 -1.6040
C -1.6186 -1.5864 -1.6028
C -1.6203 -1.5837 -1.6000
C -1.6194 -1.5871 -1.6035
C -1.6140 -1.5901 -1.6063
C -1.6131 -1.5966 -1.6065
C -1.6079 -1.5851 -1.6083
C -1.6181 -1.5901 -1.6059
C -1.6221 -1.5947 -1.6039
C -1.6159 -1.5913 -1.6073
C -1.6210 -1.5834 -1.6031
C -1.6262 -1.5843 -1.6021
C -1.6170 -1.5785 -1.6041
C -1.6227 -1.5836 -1.6011
C -1.6217 -1.5781 -1.6005
C -1.6295 -1.5859 -1.5995
C -1.6319 -1.5832 -1.5973
C -1.6328 -1.5904 -1.6009
C -1.6313 -1.5927 -1.6048
C -1.6394 -1.5919 -1.6003
C -1.6410 -1.5901 -1.5997
C -1.6413 -1.5979 -1.6011
C -1.6399 -1.6003 -1.6019
C -1.6449 -1.5981 -1.5997
C -1.6402 -1.5993 -1.6035
C -1.6382 -1.6004 -1.6059
C -1.6424 -1.6004 -1.6040
C -1.6385 -1.5961 -1.6024
C -1.6338 -1.5964 -1.6024
C -1.6423 -1.5943 -1.6022
C -1.6417 -1.5873 -1.5981
C -1.6457 -1.5845 -1.5962
C -1.6395 -1.5868 -1.5977
C -1.6327 -1.5886 -1.5981
C -1.6426 -1.5844 -1.5962
C -1.6450 -1.5807 -1.5950
C -1.6452 -1.5905 -1.5965
C -1.6470 -1.5889 -1.5949
C -1.6498 -1.5930 -1.5970
C -1.6451 -1.5876 -1.5968
C -1.6540 -1.5940 -1.5882
C -1.6531 -1.5967 -1.6043
C -1.6409 -1.5957 -1.5987
C -1.6394 -1.5970 -1.6004
C -1.6381 -1.5808 -1.5962
C -1.6398 -1.5843 -1.5979
C -1.6335 -1.5748 -1.5959
C -1.6328 -1.5717 -1.5943
C -1.6301 -1.5734 -1.5978
C -1.6301 -1.5775 -1.5985
C -1.6292 -1.5700 -1.6010
C -1.6280 -1.5716 -1.5962
C -1.6284 -1.5658 -1.5942
C -1.6265 -1.5763 -1.5967
C -1.6271 -1.5807 -1.5974
C -1.6263 -1.5748 -1.5950
C -1.6286 -1.5712 -1.5943
C -1.6267 -1.5798 -1.5963
C -1.6235 -1.5839 -1.5892
C -1.6326 -1.5678 -1.5986
C -1.6310 -1.5609 -1.6046
C -1.6333 -1.5687 -1.5913
C -1.6380 -1.5648 -1.6013
C -1.6267 -1.5907 -1.6048
C -1.6233 -1.5972 -1.6064
C -1.6208 -1.5710 -1.5944
C -1.6176 -1.5725 -1.5976
C -1.6212 -1.5680 -1.5909
C -1.6247 -1.5688 -1.5878
C -1.6168 -1.5652 -1.5896
C -1.6145 -1.5632 -1.5894
C -1.6201 -1.5608 -1.5853
C -1.6223 -1.5642 -1.5837
C -1.6171 -1.5576 -1.5858
C -1.6212 -1.5575 -1.5830
C -1.6258 -1.5577 -1.5868
C -1.6290 -1.5601 -1.5927
C -1.6252 -1.5538 -1.5821
C -1.6275 -1.5533 -1.5839
C -1.6215 -1.5510 -1.5743
C -1.6209 -1.5461 -1.5674
C -1.6232 -1.5448 -1.5692
C -1.6164 -1.5440 -1.5606
C -1.6158 -1.5412 -1.5545
C -1.6128 -1.5462 -1.5609
C -1.6084 -1.5449 -1.5556
C -1.6139 -1.5506 -1.5680
C -1.6113 -1.5522 -1.5689
C -1.6182 -1.5533 -1.5749
C -1.6141 -1.5679 -1.5925
C -1.6171 -1.5703 -1.5945
C -1.6086 -1.5674 -1.5912
C -1.6074 -1.5656 -1.5926
C -1.6055 -1.5701 -1.5908
C -1.6013 -1.5692 -1.5914
C -1.6058 -1.5687 -1.5897
C -1.6075 -1.5757 -1.5920
C -1.6084 -1.5789 -1.5930
C -1.6077 -1.5785 -1.5930
138
REAL frame=172
C -1.6186 -1.5842 -1.5939
C -1.6189 -1.5821 -1.5924
C -1.6174 -1.5833 -1.5924
C -1.6198 -1.5858 -1.5935
C -1.6164 -1.5859 -1.5955
C -1.6128 -1.5866 -1.5962
C -1.6183 -1.5872 -1.5985
C -1.6163 -1.5846 -1.5933
C -1.6209 -1.5873 -1.5916
C -1.6124 -1.5811 -1.5942
C -1.6093 -1.5788 -1.5937
C -1.6136 -1.5799 -1.5953
C -1.6147 -1.5770 -1.5931
C -1.6095 -1.5757 -1.5976
C -1.6074 -1.5683 -1.5952
C -1.6058 -1.5801 -1.5979
C -1.6125 -1.5745 -1.6020
C -1.6115 -1.5826 -1.6060
C -1.6072 -1.5905 -1.6052
C -1.6150 -1.5809 -1.6103
C -1.6130 -1.5862 -1.6136
C -1.6195 -1.5710 -1.6099
C -1.6249 -1.5690 -1.6138
C -1.6232 -1.5633 -1.6065
C -1.6224 -1.5624 -1.6060
C -1.6285 -1.5547 -1.6053
C -1.6175 -1.5645 -1.6021
C -1.6181 -1.5584 -1.5989
C -1.6156 -1.5860 -1.5979
C -1.6172 -1.5924 -1.5974
C -1.6156 -1.5848 -1.6007
C -1.6135 -1.5794 -1.6009
C -1.6159 -1.5894 -1.6051
C -1.6119 -1.5900 -1.6088
C -1.6194 -1.5958 -1.6057
C -1.6185 -1.6000 -1.6053
C -1.6192 -1.6008 -1.6079
C -1.6253 -1.5913 -1.6044
C -1.6228 -1.5840 -1.6049
C -1.6325 -1.5941 -1.6039
C -1.6187 -1.5864 -1.6028
C -1.6203 -1.5838 -1.6001
C -1.6193 -1.5871 -1.6035
C -1.6141 -1.5900 -1.6064
C -1.6134 -1.5966 -1.6070
C -1.6078 -1.5850 -1.6076
C -1.6182 -1.5901 -1.6057
C -1.6222 -1.5947 -1.6039
C -1.6161 -1.5912 -1.6072
C -1.6209 -1.5835 -1.6030
C -1.6260 -1.5843 -1.6020
C -1.6169 -1.5786 -1.6040
C -1.6229 -1.5835 -1.6012
C -1.6217 -1.5783 -1.6006
C -1.6296 -1.5860 -1.5994
C -1.6320 -1.5832 -1.5973
C -1.6327 -1.5903 -1.6009
C -1.6314 -1.5926 -1.6046
C -1.6393 -1.5920 -1.6004
C -1.6409 -1.5901 -1.5997
C -1.6411 -1.5980 -1.6010
C -1.6405 -1.6004 -1.6023
C -1.6449 -1.5982 -1.5999
C -1.6403 -1.5993 -1.6036
C -1.6380 -1.6003 -1.6059
C -1.6425 -1.6004 -1.6037
C -1.6385 -1.5961 -1.6025
C -1.6339 -1.5964 -1.6024
C -1.6423 -1.5943 -1.6021
C -1.6417 -1.5873 -1.5982
C -1.6456 -1.5844 -1.5963
C -1.6395 -1.5869 -1.5977
C -1.6322 -1.5885 -1.5977
C -1.6426 -1.5844 -1.5964
C -1.6451 -1.5806 -1.5954
C -1.6451 -1.5904 -1.5963
C -1.6474 -1.5891 -1.5947
C -1.6498 -1.5929 -1.5970
C -1.6455 -1.5876 -1.5962
C -1.6538 -1.5948 -1.5883
C -1.6530 -1.5969 -1.6043
C -1.6409 -1.5956 -1.5987
C -1.6395 -1.5967 -1.6003
C -1.6382 -1.5808 -1.5962
C -1.6397 -1.5843 -1.5980
C -1.6335 -1.5749 -1.5959
C -1.6324 -1.5717 -1.5943
C -1.6301 -1.5733 -1.5979
C -1.6299 -1.5771 -1.5988
C -1.6293 -1.5698 -1.6007
C -1.6281 -1.5717 -1.5964
C -1.6284 -1.5659 -1.5941
C -1.6266 -1.5761 -1.5967
C -1.6269 -1.5805 -1.5977
C -1.6263 -1.5747 -1.5951
C -1.6284 -1.5712 -1.5943
C -1.6266 -1.5798 -1.5963
C -1.6230 -1.5836 -1.5886
C -1.6327 -1.5679 -1.5985
C -1.6312 -1.5611 -1.6046
C -1.6331 -1.5682 -1.5914
C -1.6381 -1.5648 -1.6013
C -1.6267 -1.5907 -1.6049
C -1.6228 -1.5971 -1.6061
C -1.6209 -1.5711 -1.5943
C -1.6177 -1.5725 -1.5975
C -1.6212 -1.5678 -1.5907
C -1.6253 -1.5684 -1.5881
C -1.6169 -1.5652 -1.5898
C -1.6143 -1.5626 -1.5888
C -1.6201 -1.5609 -1.5852
C -1.6219 -1.5640 -1.5831
C -1.6171 -1.5575 -1.5858
C -1.6212 -1.5575 -1.5829
C -1.6257 -1.5578 -1.5868
C -1.6293 -1.5605 -1.5927
C -1.6251 -1.5539 -1.5821
C -1.6274 -1.5532 -1.5836
C -1.6215 -1.5510 -1.5743
C -1.6210 -1.5461 -1.5676
C -1.6229 -1.5446 -1.5686
C -1.6164 -1.5440 -1.5607
C -1.6160 -1.5407 -1.5550
C -1.6128 -1.5463 -1.5607
C -1.6086 -1.5452 -1.5555
C -1.6139 -1.5507 -1.5679
C -1.6110 -1.5523 -1.5685
C -1.6182 -1.5533 -1.5750
C -1.6141 -1.5678 -1.5924
C -1.6170 -1.5702 -1.5944
C -1.6085 -1.5674 -1.5912
C -1.6072 -1.5656 -1.5925
C -1.6057 -1.5700 -1.5909
C -1.6016 -1.5692 -1.5916
C -1.6064 -1.5690 -1.5902
C -1.6075 -1.5758 -1.5921
C -1.6086 -1.5789 -1.5930
C -1.6078 -1.5786 -1.5929
138
REAL frame=173
C -1.6185 -1.5842 -1.5940
C -1.6191 -1.5825 -1.5924
C -1.6173 -1.5834 -1.5924
C -1.6196 -1.5858 -1.5935
C -1.6165 -1.5857 -1.5956
C -1.6130 -1.5866 -1.5960
C -1.6180 -1.5876 -1.5988
C -1.6163 -1.5845 -1.5933
C -1.6208 -1.5873 -1.5915
C -1.6124 -1.5812 -1.5941
C -1.6091 -1.5788 -1.5937
C -1.6137 -1.5798 -1.5954
C -1.6151 -1.5768 -1.5933
C -1.6095 -1.5756 -1.5976
C -1.6071 -1.5676 -1.5957
C -1.6059 -1.5799 -1.5979
C -1.6125 -1.5744 -1.6020
C -1.6113 -1.5827 -1.6061
C -1.6075 -1.5905 -1.6054
C -1.6149 -1.5807 -1.6103
C -1.6131 -1.5862 -1.6136
C -1.6194 -1.5709 -1.6098
C -1.6249 -1.5690 -1.6139
C -1.6223 -1.5633 -1.6066
C -1.6223 -1.5624 -1.6060
C -1.6283 -1.5547 -1.6053
C -1.6176 -1.5646 -1.6021
C -1.6176 -1.5581 -1.5990
C -1.6155 -1.5860 -1.5978
C -1.6172 -1.5924 -1.5976
C -1.6156 -1.5847 -1.6006
C -1.6132 -1.5795 -1.6009
C -1.6160 -1.5894 -1.6051
C -1.6116 -1.5894 -1.6091
C -1.6194 -1.5960 -1.6056
C -1.6185 -1.5994 -1.6050
C -1.6188 -1.6009 -1.6073
C -1.6252 -1.5913 -1.6044
C -1.6227 -1.5841 -1.6049
C -1.6326 -1.5940 -1.6038
C -1.6188 -1.5863 -1.6027
C -1.6203 -1.5839 -1.6002
C -1.6193 -1.5871 -1.6035
C -1.6143 -1.5899 -1.6065
C -1.6137 -1.5965 -1.6078
C -1.6078 -1.5851 -1.6070
C -1.6184 -1.5902 -1.6055
C -1.6223 -1.5946 -1.6039
C -1.6160 -1.5907 -1.6073
C -1.6209 -1.5836 -1.6029
C -1.6258 -1.5842 -1.6018
C -1.6169 -1.5787 -1.6038
C -1.6231 -1.5834 -1.6013
C -1.6218 -1.5787 -1.6007
C -1.6297 -1.5860 -1.5992
C -1.6322 -1.5832 -1.5973
C -1.6327 -1.5903 -1.6009
C -1.6316 -1.5926 -1.6043
C -1.6392 -1.5920 -1.6004
C -1.6410 -1.5902 -1.5998
C -1.6410 -1.5980 -1.6010
C -1.6410 -1.6004 -1.6025
C -1.6448 -1.5984 -1.5998
C -1.6403 -1.5992 -1.6037
C -1.6379 -1.6003 -1.6058
C -1.6425 -1.6006 -1.6035
C -1.6386 -1.5962 -1.6026
C -1.6340 -1.5963 -1.6024
C -1.6424 -1.5942 -1.6020
C -1.6417 -1.5873 -1.5982
C -1.6456 -1.5844 -1.5965
C -1.6396 -1.5871 -1.5978
C -1.6319 -1.5885 -1.5976
C -1.6425 -1.5844 -1.5966
C -1.6454 -1.5805 -1.5955
C -1.6450 -1.5904 -1.5962
C -1.6478 -1.5892 -1.5946
C -1.6498 -1.5928 -1.5969
C -1.6459 -1.5875 -1.5958
C -1.6537 -1.5955 -1.5885
C -1.6528 -1.5974 -1.6043
C -1.6409 -1.5954 -1.5987
C -1.6395 -1.5965 -1.6003
C -1.6384 -1.5809 -1.5962
C -1.6395 -1.5843 -1.5980
C -1.6336 -1.5750 -1.5959
C -1.6320 -1.5718 -1.5942
C -1.6302 -1.5731 -1.5979
C -1.6297 -1.5767 -1.5991
C -1.6293 -1.5697 -1.6003
C -1.6281 -1.5717 -1.5965
C -1.6284 -1.5659 -1.5940
C -1.6267 -1.5760 -1.5967
C -1.6266 -1.5801 -1.5981
C -1.6262 -1.5747 -1.5952
C -1.6282 -1.5714 -1.5942
C -1.6266 -1.5798 -1.5964
C -1.6226 -1.5832 -1.5879
C -1.6327 -1.5680 -1.5985
C -1.6312 -1.5612 -1.6046
C -1.6330 -1.5677 -1.5914
C -1.6381 -1.5649 -1.6013
C -1.6268 -1.5906 -1.6050
C -1.6223 -1.5969 -1.6057
C -1.6210 -1.5712 -1.5944
C -1.6178 -1.5725 -1.5973
C -1.6211 -1.5676 -1.5906
C -1.6256 -1.5681 -1.5882
C -1.6171 -1.5651 -1.5899
C -1.6141 -1.5623 -1.5882
C -1.6201 -1.5610 -1.5852
C -1.6218 -1.5636 -1.5826
C -1.6170 -1.5574 -1.5857
C -1.6213 -1.5574 -1.5828
C -1.6256 -1.5578 -1.5869
C -1.6295 -1.5607 -1.5926
C -1.6250 -1.5540 -1.5820
C -1.6274 -1.5532 -1.5833
C -1.6215 -1.5509 -1.5744
C -1.6211 -1.5460 -1.5678
C -1.6228 -1.5444 -1.5676
C -1.6163 -1.5441 -1.5608
C -1.6160 -1.5403 -1.5554
C -1.6128 -1.5464 -1.5606
C -1.6089 -1.5453 -1.5552
C -1.6140 -1.5508 -1.5679
C -1.6107 -1.5523 -1.5679
C -1.6183 -1.5532 -1.5751
C -1.6142 -1.5678 -1.5923
C -1.6170 -1.5701 -1.5944
C -1.6084 -1.5674 -1.5912
C -1.6070 -1.5656 -1.5922
C -1.6058 -1.5699 -1.5910
C -1.6017 -1.5693 -1.5917
C -1.6070 -1.5691 -1.5906
C -1.6075 -1.5759 -1.5921
C -1.6087 -1.5789 -1.5931
C -1.6078 -1.5787 -1.5928
138
REAL frame=174
C -1.6185 -1.5843 -1.5939
C -1.6194 -1.5829 -1.5925
C -1.6171 -1.5834 -1.5929
C -1.6196 -1.5858 -1.5935
C -1.6165 -1.5855 -1.5957
C -1.6130 -1.5865 -1.5959
C -1.6177 -1.5880 -1.5988
C -1.6164 -1.5844 -1.5932
C -1.6208 -1.5874 -1.5915
C -1.6123 -1.5813 -1.5940
C -1.6088 -1.5786 -1.5939
C -1.6138 -1.5798 -1.5955
C -1.6156 -1.5767 -1.5934
C -1.6095 -1.5755 -1.5975
C -1.6068 -1.5671 -1.5961
C -1.6060 -1.5798 -1.5978
C -1.6125 -1.5743 -1.6021
C -1.6111 -1.5828 -1.6062
C -1.6078 -1.5903 -1.6057
C -1.6147 -1.5806 -1.6103
C -1.6133 -1.5863 -1.6135
C -1.6195 -1.5708 -1.6099
C -1.6249 -1.5690 -1.6140
C -1.6215 -1.5636 -1.6065
C -1.6223 -1.5625 -1.6060
C -1.6279 -1.5547 -1.6055
C -1.6176 -1.5646 -1.6022
C -1.6174 -1.5579 -1.5992
C -1.6156 -1.5860 -1.5978
C -1.6171 -1.5924 -1.5977
C -1.6156 -1.5846 -1.6006
C -1.6129 -1.5796 -1.6008
C -1.6160 -1.5894 -1.6051
C -1.6113 -1.5889 -1.6093
C -1.6194 -1.5961 -1.6056
C -1.6184 -1.5990 -1.6048
C -1.6187 -1.6009 -1.6066
C -1.6251 -1.5912 -1.6045
C -1.6226 -1.5841 -1.6048
C -1.6326 -1.5939 -1.6037
C -1.6189 -1.5863 -1.6026
C -1.6202 -1.5840 -1.6003
C -1.6192 -1.5870 -1.6034
C -1.6144 -1.5899 -1.6066
C -1.6139 -1.5965 -1.6086
C -1.6079 -1.5853 -1.6065
C -1.6185 -1.5902 -1.6053
C -1.6225 -1.5946 -1.6039
C -1.6159 -1.5900 -1.6073
C -1.6210 -1.5837 -1.6028
C -1.6255 -1.5841 -1.6015
C -1.6168 -1.5789 -1.6035
C -1.6232 -1.5834 -1.6015
C -1.6219 -1.5790 -1.6007
C -1.6298 -1.5859 -1.5991
C -1.6323 -1.5831 -1.5974
C -1.6327 -1.5904 -1.6009
C -1.6317 -1.5926 -1.6040
C -1.6391 -1.5920 -1.6003
C -1.6413 -1.5903 -1.5999
C -1.6409 -1.5981 -1.6011
C -1.6412 -1.6003 -1.6024
C -1.6446 -1.5985 -1.5995
C -1.6402 -1.5990 -1.6037
C -1.6380 -1.6001 -1.6058
C -1.6426 -1.6008 -1.6034
C -1.6387 -1.5965 -1.6028
C -1.6341 -1.5963 -1.6025
C -1.6424 -1.5940 -1.6019
C -1.6417 -1.5874 -1.5982
C -1.6455 -1.5843 -1.5966
C -1.6396 -1.5873 -1.5978
C -1.6319 -1.5885 -1.5981
C -1.6424 -1.5844 -1.5966
C -1.6458 -1.5804 -1.5956
C -1.6450 -1.5903 -1.5961
C -1.6479 -1.5890 -1.5945
C -1.6497 -1.5928 -1.5968
C -1.6465 -1.5874 -1.5955
C -1.6536 -1.5962 -1.5889
C -1.6525 -1.5979 -1.6041
C -1.6409 -1.5953 -1.5987
C -1.6396 -1.5964 -1.6003
C -1.6386 -1.5810 -1.5962
C -1.6394 -1.5843 -1.5981
C -1.6336 -1.5751 -1.5959
C -1.6320 -1.5718 -1.5942
C -1.6302 -1.5730 -1.5981
C -1.6295 -1.5762 -1.5995
C -1.6293 -1.5696 -1.5999
C -1.6280 -1.5717 -1.5965
C -1.6285 -1.5660 -1.5940
C -1.6267 -1.5759 -1.5967
C -1.6263 -1.5796 -1.5985
C -1.6260 -1.5746 -1.5953
C -1.6281 -1.5717 -1.5939
C -1.6267 -1.5798 -1.5964
C -1.6223 -1.5827 -1.5873
C -1.6328 -1.5681 -1.5984
C -1.6313 -1.5613 -1.6048
C -1.6330 -1.5674 -1.5913
C -1.6381 -1.5652 -1.6010
C -1.6268 -1.5906 -1.6051
C -1.6218 -1.5967 -1.6054
C -1.6212 -1.5713 -1.5945
C -1.6178 -1.5724 -1.5972
C -1.6211 -1.5674 -1.5905
C -1.6256 -1.5679 -1.5882
C -1.6172 -1.5650 -1.5899
C -1.6139 -1.5624 -1.5877
C -1.6200 -1.5611 -1.5851
C -1.6219 -1.5632 -1.5824
C -1.6169 -1.5573 -1.5857
C -1.6214 -1.5574 -1.5827
C -1.6255 -1.5578 -1.5869
C -1.6295 -1.5609 -1.5927
C -1.6248 -1.5541 -1.5819
C -1.6274 -1.5533 -1.5831
C -1.6216 -1.5508 -1.5745
C -1.6212 -1.5461 -1.5680
C -1.6228 -1.5443 -1.5667
C -1.6164 -1.5441 -1.5608
C -1.6160 -1.5400 -1.5558
C -1.6127 -1.5465 -1.5604
C -1.6092 -1.5452 -1.5549
C -1.6140 -1.5509 -1.5678
C -1.6106 -1.5523 -1.5673
C -1.6184 -1.5531 -1.5752
C -1.6142 -1.5678 -1.5922
C -1.6170 -1.5700 -1.5944
C -1.6084 -1.5674 -1.5912
C -1.6067 -1.5658 -1.5917
C -1.6060 -1.5698 -1.5912
C -1.6019 -1.5693 -1.5918
C -1.6075 -1.5690 -1.5909
C -1.6074 -1.5761 -1.5921
C -1.6089 -1.5789 -1.5932
C -1.6078 -1.5788 -1.5928
138
REAL frame=175
C -1.6184 -1.5843 -1.5938
C -1.6199 -1.5834 -1.5927
C -1.6169 -1.5833 -1.5936
C -1.6196 -1.5859 -1.5935
C -1.6165 -1.5853 -1.5958
C -1.6129 -1.5862 -1.5961
C -1.6176 -1.5883 -1.5986
C -1.6165 -1.5844 -1.5932
C -1.6207 -1.5874 -1.5914
C -1.6123 -1.5814 -1.5939
C -1.6086 -1.5784 -1.5942
C -1.6138 -1.5797 -1.5955
C -1.6161 -1.5765 -1.5936
C -1.6095 -1.5754 -1.5974
C -1.6066 -1.5669 -1.5963
C -1.6062 -1.5798 -1.5976
C -1.6126 -1.5742 -1.6022
C -1.6110 -1.5828 -1.6063
C -1.6081 -1.5902 -1.6061
C -1.6145 -1.5805 -1.6102
C -1.6135 -1.5865 -1.6133
C -1.6195 -1.5706 -1.6100
C -1.6250 -1.5690 -1.6141
C -1.6206 -1.5639 -1.6064
C -1.6222 -1.5626 -1.6059
C -1.6274 -1.5546 -1.6057
C -1.6176 -1.5646 -1.6022
C -1.6173 -1.5578 -1.5992
C -1.6157 -1.5861 -1.5978
C -1.6171 -1.5923 -1.5978
C -1.6155 -1.5845 -1.6006
C -1.6128 -1.5795 -1.6008
C -1.6160 -1.5893 -1.6051
C -1.6113 -1.5886 -1.6093
C -1.6195 -1.5962 -1.6055
C -1.6182 -1.5990 -1.6050
C -1.6188 -1.6009 -1.6061
C -1.6251 -1.5911 -1.6046
C -1.6226 -1.5841 -1.6048
C -1.6326 -1.5938 -1.6035
C -1.6190 -1.5863 -1.6025
C -1.6202 -1.5841 -1.6004
C -1.6191 -1.5868 -1.6033
C -1.6145 -1.5899 -1.6067
C -1.6141 -1.5965 -1.6094
C -1.6081 -1.5856 -1.6063
C -1.6186 -1.5902 -1.6051
C -1.6226 -1.5945 -1.6040
C -1.6157 -1.5893 -1.6073
C -1.6210 -1.5839 -1.6028
C -1.6252 -1.5839 -1.6013
C -1.6168 -1.5792 -1.6033
C -1.6233 -1.5834 -1.6016
C -1.6220 -1.5791 -1.6006
C -1.6299 -1.5858 -1.5991
C -1.6325 -1.5831 -1.5974
C -1.6328 -1.5905 -1.6008
C -1.6318 -1.5926 -1.6035
C -1.6391 -1.5919 -1.6001
C -1.6416 -1.5903 -1.6001
C -1.6408 -1.5982 -1.6012
C -1.6411 -1.6002 -1.6023
C -1.6443 -1.5987 -1.5990
C -1.6402 -1.5989 -1.6038
C -1.6380 -1.6000 -1.6059
C -1.6426 -1.6011 -1.6034
C -1.6389 -1.5967 -1.6029
C -1.6341 -1.5962 -1.6025
C -1.6425 -1.5939 -1.6018
C -1.6417 -1.5875 -1.5983
C -1.6455 -1.5843 -1.5968
C -1.6396 -1.5875 -1.5979
C -1.6322 -1.5886 -1.5988
C -1.6423 -1.5843 -1.5966
C -1.6462 -1.5803 -1.5955
C -1.6451 -1.5901 -1.5961
C -1.6478 -1.5887 -1.5945
C -1.6496 -1.5928 -1.5966
C -1.6471 -1.5873 -1.5955
C -1.6536 -1.5967 -1.5894
C -1.6520 -1.5983 -1.6039
C -1.6409 -1.5951 -1.5987
C -1.6397 -1.5963 -1.6003
C -1.6387 -1.5811 -1.5963
C -1.6392 -1.5843 -1.5982
C -1.6337 -1.5751 -1.5959
C -1.6322 -1.5719 -1.5941
C -1.6303 -1.5730 -1.5982
C -1.6294 -1.5756 -1.5999
C -1.6293 -1.5695 -1.5994
C -1.6280 -1.5716 -1.5964
C -1.6285 -1.5661 -1.5940
C -1.6268 -1.5757 -1.5968
C -1.6262 -1.5793 -1.5988
C -1.6258 -1.5745 -1.5953
C -1.6279 -1.5721 -1.5936
C -1.6267 -1.5798 -1.5965
C -1.6223 -1.5825 -1.5869
C -1.6328 -1.5681 -1.5984
C -1.6313 -1.5614 -1.6050
C -1.6332 -1.5673 -1.5912
C -1.6380 -1.5656 -1.6006
C -1.6268 -1.5906 -1.6052
C -1.6215 -1.5964 -1.6052
C -1.6214 -1.5715 -1.5945
C -1.6179 -1.5724 -1.5970
C -1.6212 -1.5672 -1.5904
C -1.6252 -1.5676 -1.5878
C -1.6174 -1.5649 -1.5897
C -1.6137 -1.5627 -1.5876
C -1.6199 -1.5611 -1.5851
C -1.6222 -1.5630 -1.5825
C -1.6167 -1.5572 -1.5857
C -1.6214 -1.5574 -1.5826
C -1.6254 -1.5579 -1.5869
C -1.6294 -1.5608 -1.5927
C -1.6247 -1.5542 -1.5818
C -1.6274 -1.5535 -1.5831
C -1.6216 -1.5508 -1.5747
C -1.6212 -1.5461 -1.5681
C -1.6229 -1.5444 -1.5662
C -1.6164 -1.5442 -1.5609
C -1.6158 -1.5399 -1.5560
C -1.6127 -1.5466 -1.5603
C -1.6095 -1.5448 -1.5546
C -1.6140 -1.5509 -1.5677
C -1.6105 -1.5522 -1.5668
C -1.6185 -1.5530 -1.5751
C -1.6141 -1.5677 -1.5922
C -1.6169 -1.5699 -1.5944
C -1.6084 -1.5673 -1.5912
C -1.6064 -1.5659 -1.5912
C -1.6061 -1.5698 -1.5914
C -1.6020 -1.5693 -1.5917
C -1.6079 -1.5687 -1.5910
C -1.6074 -1.5762 -1.5922
C -1.6090 -1.5788 -1.5932
C -1.6078 -1.5790 -1.5927
138
REAL frame=176
C -1.6184 -1.5843 -1.5938
C -1.6202 -1.5838 -1.5929
C -1.6168 -1.5832 -1.5944
C -1.6196 -1.5860 -1.5937
C -1.6165 -1.5852 -1.5959
C -1.6126 -1.5857 -1.5963
C -1.6176 -1.5883 -1.5983
C -1.6165 -1.5844 -1.5932
C -1.6207 -1.5874 -1.5914
C -1.6124 -1.5815 -1.5938
C -1.6085 -1.5783 -1.5944
C -1.6137 -1.5797 -1.5954
C -1.6167 -1.5765 -1.5936
C -1.6095 -1.5753 -1.5974
C -1.6066 -1.5670 -1.5962
C -1.6064 -1.5799 -1.5974
C -1.6126 -1.5742 -1.6023
C -1.6108 -1.5828 -1.6064
C -1.6083 -1.5899 -1.6065
C -1.6143 -1.5804 -1.6101
C -1.6138 -1.5865 -1.6132
C -1.6196 -1.5704 -1.6101
C -1.6250 -1.5689 -1.6142
C -1.6198 -1.5644 -1.6062
C -1.6221 -1.5626 -1.6059
C -1.6268 -1.5546 -1.6059
C -1.6176 -1.5645 -1.6022
C -1.6174 -1.5579 -1.5992
C -1.6158 -1.5862 -1.5980
C -1.6171 -1.5922 -1.5979
C -1.6154 -1.5844 -1.6006
C -1.6129 -1.5793 -1.6008
C -1.6160 -1.5891 -1.6050
C -1.6114 -1.5886 -1.6092
C -1.6196 -1.5962 -1.6055
C -1.6180 -1.5993 -1.6053
C -1.6191 -1.6009 -1.6058
C -1.6251 -1.5910 -1.6047
C -1.6225 -1.5842 -1.6049
C -1.6326 -1.5938 -1.6034
C -1.6190 -1.5863 -1.6025
C -1.6202 -1.5842 -1.6005
C -1.6191 -1.5867 -1.6032
C -1.6146 -1.5900 -1.6067
C -1.6143 -1.5965 -1.6098
C -1.6083 -1.5860 -1.6065
C -1.6187 -1.5902 -1.6050
C -1.6227 -1.5945 -1.6040
C -1.6155 -1.5887 -1.6072
C -1.6210 -1.5840 -1.6028
C -1.6249 -1.5838 -1.6012
C -1.6168 -1.5796 -1.6031
C -1.6234 -1.5835 -1.6016
C -1.6222 -1.5790 -1.6004
C -1.6299 -1.5856 -1.5992
C -1.6326 -1.5831 -1.5974
C -1.6329 -1.5905 -1.6008
C -1.6318 -1.5927 -1.6032
C -1.6390 -1.5918 -1.5999
C -1.6418 -1.5904 -1.6002
C -1.6407 -1.5982 -1.6013
C -1.6407 -1.6002 -1.6020
C -1.6439 -1.5988 -1.5985
C -1.6401 -1.5988 -1.6037
C -1.6382 -1.5999 -1.6061
C -1.6426 -1.6013 -1.6036
C -1.6391 -1.5968 -1.6029
C -1.6341 -1.5962 -1.6026
C -1.6426 -1.5937 -1.6017
C -1.6418 -1.5876 -1.5983
C -1.6455 -1.5843 -1.5970
C -1.6396 -1.5876 -1.5980
C -1.6327 -1.5889 -1.5996
C -1.6423 -1.5843 -1.5965
C -1.6465 -1.5802 -1.5953
C -1.6451 -1.5900 -1.5962
C -1.6475 -1.5882 -1.5946
C -1.6495 -1.5929 -1.5963
C -1.6477 -1.5873 -1.5956
C -1.6536 -1.5971 -1.5899
C -1.6514 -1.5986 -1.6037
C -1.6409 -1.5950 -1.5987
C -1.6397 -1.5963 -1.6003
C -1.6387 -1.5812 -1.5965
C -1.6391 -1.5843 -1.5982
C -1.6338 -1.5752 -1.5959
C -1.6326 -1.5719 -1.5941
C -1.6303 -1.5729 -1.5983
C -1.6292 -1.5751 -1.6003
C -1.6294 -1.5694 -1.5990
C -1.6279 -1.5715 -1.5963
C -1.6286 -1.5662 -1.5941
C -1.6269 -1.5756 -1.5969
C -1.6261 -1.5792 -1.5990
C -1.6257 -1.5745 -1.5954
C -1.6278 -1.5725 -1.5934
C -1.6267 -1.5798 -1.5964
C -1.6225 -1.5825 -1.5868
C -1.6329 -1.5681 -1.5983
C -1.6313 -1.5615 -1.6053
C -1.6334 -1.5673 -1.5911
C -1.6379 -1.5660 -1.6002
C -1.6268 -1.5906 -1.6053
C -1.6213 -1.5962 -1.6053
C -1.6216 -1.5716 -1.5945
C -1.6179 -1.5724 -1.5969
C -1.6214 -1.5671 -1.5905
C -1.6246 -1.5674 -1.5875
C -1.6174 -1.5648 -1.5895
C -1.6137 -1.5632 -1.5877
C -1.6198 -1.5611 -1.5851
C -1.6227 -1.5628 -1.5829
C -1.6166 -1.5572 -1.5857
C -1.6215 -1.5575 -1.5826
C -1.6253 -1.5579 -1.5869
C -1.6291 -1.5606 -1.5927
C -1.6246 -1.5543 -1.5818
C -1.6275 -1.5536 -1.5832
C -1.6217 -1.5507 -1.5748
C -1.6212 -1.5462 -1.5681
C -1.6232 -1.5445 -1.5662
C -1.6164 -1.5442 -1.5610
C -1.6156 -1.5400 -1.5559
C -1.6127 -1.5467 -1.5603
C -1.6097 -1.5444 -1.5544
C -1.6140 -1.5509 -1.5676
C -1.6105 -1.5522 -1.5666
C -1.6186 -1.5529 -1.5750
C -1.6141 -1.5677 -1.5921
C -1.6169 -1.5698 -1.5943
C -1.6085 -1.5672 -1.5912
C -1.6061 -1.5661 -1.5906
C -1.6063 -1.5698 -1.5916
C -1.6021 -1.5693 -1.5916
C -1.6081 -1.5682 -1.5910
C -1.6074 -1.5763 -1.5924
C -1.6092 -1.5788 -1.5932
C -1.6078 -1.5791 -1.5926
138
REAL frame=177
C -1.6184 -1.5844 -1.5937
C -1.6204 -1.5841 -1.5930
C -1.6169 -1.5829 -1.5949
C -1.6195 -1.5861 -1.5938
C -1.6164 -1.5852 -1.5959
C -1.6123 -1.5850 -1.5968
C -1.6177 -1.5882 -1.5980
C -1.6165 -1.5844 -1.5931
C -1.6206 -1.5873 -1.5913
C -1.6124 -1.5814 -1.5938
C -1.6085 -1.5783 -1.5944
C -1.6137 -1.5798 -1.5953
C -1.6171 -1.5766 -1.5936
C -1.6095 -1.5752 -1.5973
C -1.6067 -1.5673 -1.5958
C -1.6065 -1.5799 -1.5971
C -1.6126 -1.5742 -1.6024
C -1.6107 -1.5827 -1.6065
C -1.6083 -1.5897 -1.6068
C -1.6142 -1.5804 -1.6101
C -1.6140 -1.5865 -1.6131
C -1.6198 -1.5703 -1.6103
C -1.6250 -1.5688 -1.6143
C -1.6190 -1.5648 -1.6062
C -1.6219 -1.5626 -1.6059
C -1.6262 -1.5546 -1.6059
C -1.6176 -1.5644 -1.6022
C -1.6177 -1.5581 -1.5990
C -1.6160 -1.5863 -1.5981
C -1.6170 -1.5921 -1.5980
C -1.6154 -1.5843 -1.6007
C -1.6130 -1.5791 -1.6009
C -1.6160 -1.5890 -1.6048
C -1.6116 -1.5889 -1.6089
C -1.6196 -1.5963 -1.6054
C -1.6179 -1.6000 -1.6058
C -1.6196 -1.6009 -1.6057
C -1.6250 -1.5908 -1.6047
C -1.6224 -1.5842 -1.6049
C -1.6325 -1.5938 -1.6033
C -1.6190 -1.5864 -1.6025
C -1.6202 -1.5842 -1.6006
C -1.6191 -1.5866 -1.6032
C -1.6147 -1.5902 -1.6066
C -1.6145 -1.5965 -1.6099
C -1.6086 -1.5863 -1.6071
C -1.6188 -1.5901 -1.6049
C -1.6228 -1.5945 -1.6039
C -1.6153 -1.5883 -1.6072
C -1.6211 -1.5842 -1.6029
C -1.6247 -1.5838 -1.6012
C -1.6168 -1.5801 -1.6029
C -1.6234 -1.5835 -1.6016
C -1.6223 -1.5788 -1.6004
C -1.6299 -1.5854 -1.5992
C -1.6328 -1.5830 -1.5974
C -1.6331 -1.5906 -1.6006
C -1.6316 -1.5927 -1.6028
C -1.6390 -1.5917 -1.5998
C -1.6419 -1.5904 -1.6002
C -1.6407 -1.5982 -1.6014
C -1.6400 -1.6001 -1.6017
C -1.6436 -1.5989 -1.5981
C -1.6401 -1.5988 -1.6037
C -1.6383 -1.5999 -1.6062
C -1.6425 -1.6014 -1.6038
C -1.6393 -1.5968 -1.6029
C -1.6340 -1.5962 -1.6027
C -1.6427 -1.5937 -1.6015
C -1.6418 -1.5876 -1.5983
C -1.6454 -1.5843 -1.5972
C -1.6396 -1.5878 -1.5982
C -1.6335 -1.5892 -1.6002
C -1.6423 -1.5843 -1.5964
C -1.6465 -1.5802 -1.5951
C -1.6452 -1.5898 -1.5962
C -1.6471 -1.5876 -1.5947
C -1.6495 -1.5930 -1.5961
C -1.6482 -1.5873 -1.5958
C -1.6537 -1.5973 -1.5904
C -1.6509 -1.5986 -1.6035
C -1.6409 -1.5949 -1.5988
C -1.6397 -1.5963 -1.6004
C -1.6387 -1.5813 -1.5966
C -1.6390 -1.5843 -1.5982
C -1.6338 -1.5752 -1.5958
C -1.6332 -1.5719 -1.5941
C -1.6302 -1.5729 -1.5984
C -1.6291 -1.5747 -1.6006
C -1.6296 -1.5691 -1.5988
C -1.6280 -1.5714 -1.5962
C -1.6287 -1.5663 -1.5941
C -1.6270 -1.5754 -1.5970
C -1.6262 -1.5793 -1.5990
C -1.6257 -1.5744 -1.5955
C -1.6276 -1.5727 -1.5933
C -1.6267 -1.5797 -1.5963
C -1.6229 -1.5827 -1.5869
C -1.6329 -1.5682 -1.5983
C -1.6315 -1.5616 -1.6056
C -1.6336 -1.5674 -1.5910
C -1.6377 -1.5665 -1.5996
C -1.6267 -1.5907 -1.6054
C -1.6214 -1.5961 -1.6057
C -1.6217 -1.5717 -1.5945
C -1.6180 -1.5724 -1.5968
C -1.6215 -1.5670 -1.5906
C -1.6239 -1.5672 -1.5872
C -1.6174 -1.5648 -1.5893
C -1.6139 -1.5638 -1.5881
C -1.6197 -1.5611 -1.5851
C -1.6232 -1.5628 -1.5835
C -1.6165 -1.5573 -1.5857
C -1.6215 -1.5575 -1.5826
C -1.6252 -1.5579 -1.5868
C -1.6286 -1.5602 -1.5927
C -1.6245 -1.5544 -1.5818
C -1.6275 -1.5538 -1.5835
C -1.6218 -1.5507 -1.5749
C -1.6212 -1.5464 -1.5680
C -1.6235 -1.5446 -1.5667
C -1.6165 -1.5443 -1.5611
C -1.6154 -1.5404 -1.5558
C -1.6127 -1.5467 -1.5603
C -1.6098 -1.5440 -1.5542
C -1.6140 -1.5509 -1.5675
C -1.6107 -1.5523 -1.5667
C -1.6187 -1.5528 -1.5748
C -1.6140 -1.5676 -1.5920
C -1.6168 -1.5697 -1.5943
C -1.6086 -1.5671 -1.5912
C -1.6060 -1.5661 -1.5898
C -1.6064 -1.5698 -1.5917
C -1.6022 -1.5694 -1.5913
C -1.6082 -1.5677 -1.5908
C -1.6074 -1.5764 -1.5926
C -1.6093 -1.5788 -1.5932
C -1.6078 -1.5792 -1.5924
138
REAL frame=178
C -1.6184 -1.5844 -1.5937
C -1.6204 -1.5842 -1.5929
C -1.6170 -1.5825 -1.5951
C -1.6193 -1.5862 -1.5939
C -1.6164 -1.5853 -1.5958
C -1.6121 -1.5842 -1.5972
C -1.6179 -1.5878 -1.5978
C -1.6165 -1.5845 -1.5931
C -1.6206 -1.5872 -1.5913
C -1.6124 -1.5813 -1.5937
C -1.6087 -1.5785 -1.5943
C -1.6136 -1.5798 -1.5952
C -1.6173 -1.5767 -1.5934
C -1.6095 -1.5751 -1.5973
C -1.6070 -1.5678 -1.5954
C -1.6066 -1.5799 -1.5968
C -1.6126 -1.5743 -1.6026
C -1.6106 -1.5826 -1.6066
C -1.6082 -1.5896 -1.6070
C -1.6140 -1.5804 -1.6100
C -1.6141 -1.5864 -1.6130
C -1.6200 -1.5703 -1.6103
C -1.6250 -1.5687 -1.6144
C -1.6184 -1.5652 -1.6063
C -1.6218 -1.5625 -1.6059
C -1.6256 -1.5546 -1.6058
C -1.6175 -1.5643 -1.6021
C -1.6181 -1.5584 -1.5989
C -1.6162 -1.5864 -1.5982
C -1.6170 -1.5920 -1.5981
C -1.6153 -1.5842 -1.6007
C -1.6132 -1.5789 -1.6009
C -1.6160 -1.5889 -1.6047
C -1.6119 -1.5893 -1.6085
C -1.6197 -1.5964 -1.6054
C -1.6179 -1.6009 -1.6062
C -1.6201 -1.6009 -1.6059
C -1.6250 -1.5906 -1.6047
C -1.6224 -1.5843 -1.6050
C -1.6324 -1.5938 -1.6031
C -1.6191 -1.5864 -1.6026
C -1.6201 -1.5843 -1.6006
C -1.6191 -1.5866 -1.6031
C -1.6147 -1.5903 -1.6065
C -1.6146 -1.5966 -1.6096
C -1.6089 -1.5866 -1.6080
C -1.6189 -1.5899 -1.6049
C -1.6229 -1.5944 -1.6037
C -1.6152 -1.5882 -1.6071
C -1.6211 -1.5843 -1.6029
C -1.6245 -1.5839 -1.6014
C -1.6169 -1.5807 -1.6028
C -1.6233 -1.5836 -1.6015
C -1.6224 -1.5784 -1.6003
C -1.6299 -1.5854 -1.5993
C -1.6329 -1.5829 -1.5974
C -1.6332 -1.5907 -1.6005
C -1.6314 -1.5927 -1.6026
C -1.6390 -1.5916 -1.5997
C -1.6419 -1.5903 -1.6001
C -1.6406 -1.5982 -1.6014
C -1.6393 -1.6002 -1.6016
C -1.6435 -1.5990 -1.5980
C -1.6401 -1.5988 -1.6036
C -1.6383 -1.5999 -1.6063
C -1.6425 -1.6014 -1.6039
C -1.6395 -1.5966 -1.6030
C -1.6340 -1.5961 -1.6028
C -1.6428 -1.5938 -1.6014
C -1.6418 -1.5877 -1.5983
C -1.6454 -1.5844 -1.5974
C -1.6396 -1.5879 -1.5983
C -1.6345 -1.5896 -1.6004
C -1.6424 -1.5843 -1.5962
C -1.6463 -1.5803 -1.5950
C -1.6452 -1.5896 -1.5962
C -1.6467 -1.5871 -1.5949
C -1.6494 -1.5931 -1.5959
C -1.6485 -1.5873 -1.5959
C -1.6538 -1.5974 -1.5906
C -1.6503 -1.5985 -1.6033
C -1.6409 -1.5947 -1.5988
C -1.6397 -1.5963 -1.6004
C -1.6386 -1.5813 -1.5968
C -1.6389 -1.5842 -1.5983
C -1.6339 -1.5752 -1.5958
C -1.6338 -1.5720 -1.5941
C -1.6301 -1.5728 -1.5984
C -1.6289 -1.5745 -1.6007
C -1.6299 -1.5688 -1.5987
C -1.6280 -1.5713 -1.5962
C -1.6287 -1.5664 -1.5942
C -1.6270 -1.5753 -1.5971
C -1.6263 -1.5794 -1.5989
C -1.6257 -1.5744 -1.5955
C -1.6275 -1.5727 -1.5933
C -1.6267 -1.5796 -1.5963
C -1.6234 -1.5830 -1.5874
C -1.6330 -1.5681 -1.5983
C -1.6318 -1.5617 -1.6058
C -1.6338 -1.5675 -1.5909
C -1.6375 -1.5669 -1.5992
C -1.6266 -1.5907 -1.6054
C -1.6216 -1.5959 -1.6063
C -1.6219 -1.5717 -1.5943
C -1.6180 -1.5724 -1.5968
C -1.6217 -1.5670 -1.5907
C -1.6235 -1.5668 -1.5873
C -1.6174 -1.5648 -1.5890
C -1.6142 -1.5642 -1.5885
C -1.6196 -1.5610 -1.5850
C -1.6235 -1.5629 -1.5842
C -1.6165 -1.5576 -1.5855
C -1.6215 -1.5576 -1.5826
C -1.6251 -1.5579 -1.5868
C -1.6280 -1.5599 -1.5927
C -1.6245 -1.5544 -1.5819
C -1.6275 -1.5539 -1.5838
C -1.6218 -1.5507 -1.5750
C -1.6212 -1.5465 -1.5679
C -1.6238 -1.5448 -1.5676
C -1.6165 -1.5444 -1.5611
C -1.6151 -1.5409 -1.5555
C -1.6127 -1.5466 -1.5603
C -1.6099 -1.5438 -1.5542
C -1.6139 -1.5509 -1.5674
C -1.6110 -1.5523 -1.5671
C -1.6188 -1.5528 -1.5746
C -1.6140 -1.5674 -1.5919
C -1.6168 -1.5696 -1.5943
C -1.6087 -1.5671 -1.5912
C -1.6060 -1.5661 -1.5890
C -1.6065 -1.5698 -1.5919
C -1.6022 -1.5695 -1.5911
C -1.6082 -1.5673 -1.5907
C -1.6074 -1.5765 -1.5928
C -1.6094 -1.5788 -1.5932
C -1.6078 -1.5793 -1.5923
138
REAL frame=179
C -1.6185 -1.5844 -1.5938
C -1.6203 -1.5841 -1.5928
C -1.6173 -1.5822 -1.5948
C -1.6190 -1.5862 -1.5940
C -1.6163 -1.5854 -1.5957
C -1.6119 -1.5837 -1.5976
C -1.6181 -1.5874 -1.5976
C -1.6165 -1.5846 -1.5931
C -1.6206 -1.5871 -1.5913
C -1.6124 -1.5812 -1.5937
C -1.6091 -1.5788 -1.5940
C -1.6136 -1.5799 -1.5951
C -1.6171 -1.5769 -1.5932
C -1.6094 -1.5750 -1.5973
C -1.6073 -1.5683 -1.5949
C -1.6066 -1.5799 -1.5967
C -1.6126 -1.5743 -1.6026
C -1.6105 -1.5825 -1.6067
C -1.6080 -1.5895 -1.6070
C -1.6138 -1.5805 -1.6100
C -1.6141 -1.5862 -1.6130
C -1.6201 -1.5703 -1.6104
C -1.6250 -1.5686 -1.6145
C -1.6178 -1.5654 -1.6065
C -1.6216 -1.5624 -1.6060
C -1.6251 -1.5547 -1.6056
C -1.6175 -1.5642 -1.6021
C -1.6186 -1.5586 -1.5988
C -1.6163 -1.5863 -1.5982
C -1.6170 -1.5920 -1.5983
C -1.6153 -1.5841 -1.6009
C -1.6134 -1.5787 -1.6008
C -1.6161 -1.5888 -1.6045
C -1.6123 -1.5897 -1.6080
C -1.6198 -1.5964 -1.6054
C -1.6179 -1.6019 -1.6065
C -1.6204 -1.6009 -1.6061
C -1.6250 -1.5905 -1.6047
C -1.6224 -1.5843 -1.6051
C -1.6323 -1.5938 -1.6030
C -1.6190 -1.5865 -1.6027
C -1.6201 -1.5843 -1.6006
C -1.6192 -1.5866 -1.6031
C -1.6148 -1.5905 -1.6064
C -1.6147 -1.5967 -1.6089
C -1.6094 -1.5868 -1.6089
C -1.6190 -1.5898 -1.6050
C -1.6230 -1.5943 -1.6036
C -1.6153 -1.5883 -1.6071
C -1.6212 -1.5843 -1.6029
C -1.6244 -1.5840 -1.6018
C -1.6170 -1.5813 -1.6029
C -1.6233 -1.5836 -1.6014
C -1.6224 -1.5781 -1.6004
C -1.6300 -1.5854 -1.5994
C -1.6330 -1.5828 -1.5974
C -1.6333 -1.5906 -1.6004
C -1.6312 -1.5927 -1.6023
C -1.6391 -1.5915 -1.5996
C -1.6417 -1.5900 -1.5998
C -1.6405 -1.5981 -1.6014
C -1.6386 -1.6003 -1.6018
C -1.6437 -1.5991 -1.5981
C -1.6402 -1.5989 -1.6036
C -1.6383 -1.5999 -1.6064
C -1.6425 -1.6013 -1.6040
C -1.6397 -1.5963 -1.6030
C -1.6340 -1.5961 -1.6029
C -1.6429 -1.5939 -1.6014
C -1.6418 -1.5877 -1.5982
C -1.6454 -1.5844 -1.5976
C -1.6395 -1.5879 -1.5985
C -1.6356 -1.5901 -1.6002
C -1.6425 -1.5843 -1.5961
C -1.6459 -1.5804 -1.5948
C -1.6452 -1.5894 -1.5963
C -1.6463 -1.5867 -1.5949
C -1.6494 -1.5932 -1.5957
C -1.6485 -1.5874 -1.5960
C -1.6539 -1.5975 -1.5908
C -1.6499 -1.5981 -1.6032
C -1.6410 -1.5946 -1.5988
C -1.6397 -1.5963 -1.6004
C -1.6384 -1.5814 -1.5969
C -1.6389 -1.5842 -1.5983
C -1.6340 -1.5752 -1.5958
C -1.6343 -1.5721 -1.5941
C -1.6301 -1.5728 -1.5984
C -1.6287 -1.5744 -1.6007
C -1.6301 -1.5684 -1.5987
C -1.6281 -1.5712 -1.5963
C -1.6287 -1.5664 -1.5942
C -1.6270 -1.5752 -1.5972
C -1.6266 -1.5796 -1.5988
C -1.6258 -1.5745 -1.5956
C -1.6274 -1.5725 -1.5935
C -1.6268 -1.5795 -1.5962
C -1.6239 -1.5834 -1.5879
C -1.6331 -1.5681 -1.5983
C -1.6322 -1.5619 -1.6059
C -1.6338 -1.5676 -1.5909
C -1.6373 -1.5673 -1.5990
C -1.6265 -1.5908 -1.6054
C -1.6218 -1.5958 -1.6069
C -1.6219 -1.5717 -1.5942
C -1.6180 -1.5725 -1.5968
C -1.6218 -1.5670 -1.5908
C -1.6234 -1.5662 -1.5878
C -1.6174 -1.5648 -1.5888
C -1.6146 -1.5644 -1.5889
C -1.6195 -1.5609 -1.5850
C -1.6238 -1.5630 -1.5848
C -1.6166 -1.5579 -1.5853
C -1.6215 -1.5576 -1.5826
C -1.6251 -1.5579 -1.5867
C -1.6273 -1.5598 -1.5926
C -1.6244 -1.5544 -1.5821
C -1.6274 -1.5540 -1.5841
C -1.6219 -1.5508 -1.5749
C -1.6212 -1.5466 -1.5679
C -1.6241 -1.5451 -1.5685
C -1.6165 -1.5446 -1.5611
C -1.6150 -1.5414 -1.5552
C -1.6128 -1.5464 -1.5603
C -1.6097 -1.5438 -1.5543
C -1.6139 -1.5508 -1.5673
C -1.6114 -1.5523 -1.5676
C -1.6189 -1.5529 -1.5745
C -1.6140 -1.5673 -1.5918
C -1.6167 -1.5695 -1.5942
C -1.6088 -1.5670 -1.5912
C -1.6061 -1.5660 -1.5882
C -1.6066 -1.5698 -1.5920
C -1.6023 -1.5696 -1.5908
C -1.6082 -1.5671 -1.5906
C -1.6075 -1.5766 -1.5930
C -1.6095 -1.5788 -1.5931
C -1.6078 -1.5794 -1.5922
138
REAL frame=180
C -1.6185 -1.5844 -1.5939
C -1.6200 -1.5839 -1.5925
C -1.6177 -1.5818 -1.5942
C -1.6185 -1.5861 -1.5941
C -1.6162 -1.5855 -1.5956
C -1.6119 -1.5836 -1.5978
C -1.6182 -1.5871 -1.5976
C -1.6165 -1.5846 -1.5931
C -1.6206 -1.5870 -1.5912
C -1.6124 -1.5810 -1.5936
C -1.6094 -1.5790 -1.5938
C -1.6136 -1.5799 -1.5950
C -1.6168 -1.5771 -1.5928
C -1.6094 -1.5750 -1.5972
C -1.6076 -1.5686 -1.5945
C -1.6066 -1.5799 -1.5967
C -1.6126 -1.5742 -1.6027
C -1.6104 -1.5823 -1.6067
C -1.6076 -1.5895 -1.6070
C -1.6137 -1.5805 -1.6101
C -1.6140 -1.5861 -1.6131
C -1.6203 -1.5703 -1.6104
C -1.6249 -1.5685 -1.6145
C -1.6174 -1.5655 -1.6070
C -1.6214 -1.5622 -1.6062
C -1.6248 -1.5547 -1.6054
C -1.6175 -1.5643 -1.6021
C -1.6191 -1.5586 -1.5988
C -1.6163 -1.5861 -1.5982
C -1.6171 -1.5919 -1.5984
C -1.6152 -1.5840 -1.6010
C -1.6135 -1.5787 -1.6007
C -1.6161 -1.5888 -1.6043
C -1.6127 -1.5901 -1.6076
C -1.6198 -1.5963 -1.6054
C -1.6181 -1.6027 -1.6065
C -1.6206 -1.6009 -1.6064
C -1.6249 -1.5903 -1.6047
C -1.6224 -1.5844 -1.6053
C -1.6322 -1.5938 -1.6029
C -1.6190 -1.5864 -1.6028
C -1.6201 -1.5843 -1.6005
C -1.6193 -1.5867 -1.6031
C -1.6148 -1.5906 -1.6063
C -1.6148 -1.5966 -1.6080
C -1.6097 -1.5868 -1.6095
C -1.6191 -1.5896 -1.6050
C -1.6230 -1.5941 -1.6035
C -1.6156 -1.5887 -1.6071
C -1.6211 -1.5844 -1.6029
C -1.6242 -1.5842 -1.6022
C -1.6171 -1.5818 -1.6030
C -1.6232 -1.5835 -1.6013
C -1.6223 -1.5778 -1.6004
C -1.6301 -1.5855 -1.5994
C -1.6332 -1.5826 -1.5974
C -1.6333 -1.5906 -1.6004
C -1.6310 -1.5926 -1.6021
C -1.6393 -1.5915 -1.5996
C -1.6414 -1.5898 -1.5993
C -1.6404 -1.5981 -1.6012
C -1.6379 -1.6006 -1.6022
C -1.6440 -1.5993 -1.5983
C -1.6402 -1.5991 -1.6035
C -1.6382 -1.6000 -1.6064
C -1.6426 -1.6011 -1.6039
C -1.6397 -1.5960 -1.6031
C -1.6340 -1.5960 -1.6030
C -1.6431 -1.5940 -1.6013
C -1.6417 -1.5877 -1.5982
C -1.6454 -1.5845 -1.5978
C -1.6395 -1.5880 -1.5985
C -1.6368 -1.5905 -1.5996
C -1.6426 -1.5844 -1.5961
C -1.6454 -1.5806 -1.5947
C -1.6451 -1.5893 -1.5962
C -1.6462 -1.5865 -1.5949
C -1.6495 -1.5934 -1.5957
C -1.6483 -1.5875 -1.5958
C -1.6540 -1.5976 -1.5907
C -1.6497 -1.5976 -1.6031
C -1.6410 -1.5945 -1.5989
C -1.6396 -1.5963 -1.6005
C -1.6383 -1.5815 -1.5970
C -1.6389 -1.5842 -1.5983
C -1.6340 -1.5752 -1.5958
C -1.6345 -1.5722 -1.5943
C -1.6300 -1.5727 -1.5983
C -1.6284 -1.5745 -1.6005
C -1.6304 -1.5681 -1.5989
C -1.6283 -1.5711 -1.5964
C -1.6287 -1.5664 -1.5942
C -1.6269 -1.5751 -1.5973
C -1.6268 -1.5795 -1.5987
C -1.6259 -1.5745 -1.5956
C -1.6274 -1.5721 -1.5939
C -1.6268 -1.5794 -1.5961
C -1.6242 -1.5836 -1.5885
C -1.6331 -1.5681 -1.5983
C -1.6328 -1.5620 -1.6059
C -1.6337 -1.5676 -1.5910
C -1.6371 -1.5675 -1.5989
C -1.6264 -1.5908 -1.6054
C -1.6221 -1.5958 -1.6074
C -1.6220 -1.5716 -1.5940
C -1.6180 -1.5726 -1.5967
C -1.6218 -1.5671 -1.5908
C -1.6237 -1.5655 -1.5885
C -1.6173 -1.5648 -1.5886
C -1.6150 -1.5643 -1.5892
C -1.6194 -1.5608 -1.5850
C -1.6238 -1.5631 -1.5851
C -1.6167 -1.5582 -1.5850
C -1.6214 -1.5576 -1.5825
C -1.6250 -1.5580 -1.5866
C -1.6266 -1.5599 -1.5925
C -1.6243 -1.5543 -1.5823
C -1.6273 -1.5540 -1.5844
C -1.6220 -1.5509 -1.5748
C -1.6211 -1.5467 -1.5679
C -1.6244 -1.5454 -1.5691
C -1.6165 -1.5447 -1.5610
C -1.6150 -1.5417 -1.5550
C -1.6128 -1.5463 -1.5604
C -1.6095 -1.5440 -1.5545
C -1.6139 -1.5507 -1.5672
C -1.6117 -1.5523 -1.5679
C -1.6190 -1.5530 -1.5743
C -1.6140 -1.5671 -1.5917
C -1.6167 -1.5695 -1.5942
C -1.6090 -1.5670 -1.5913
C -1.6063 -1.5660 -1.5875
C -1.6067 -1.5698 -1.5921
C -1.6024 -1.5698 -1.5906
C -1.6081 -1.5671 -1.5907
C -1.6076 -1.5768 -1.5932
C -1.6096 -1.5789 -1.5932
C -1.6078 -1.5794 -1.5922
138
REAL frame=181
C -1.6196 -1.5855 -1.5951
C -1.6209 -1.5849 -1.5934
C -1.6191 -1.5826 -1.5946
C -1.6191 -1.5870 -1.5951
C -1.6172 -1.5868 -1.5967
C -1.6130 -1.5849 -1.5990
C -1.6193 -1.5879 -1.5988
C -1.6175 -1.5857 -1.5942
C -1.6216 -1.5880 -1.5923
C -1.6135 -1.5820 -1.5947
C -1.6107 -1.5801 -1.5947
C -1.6148 -1.5810 -1.5961
C -1.6173 -1.5784 -1.5936
C -1.6105 -1.5761 -1.5982
C -1.6088 -1.5698 -1.5954
C -1.6075 -1.5809 -1.5979
C -1.6136 -1.5752 -1.6037
C -1.6114 -1.5833 -1.6078
C -1.6082 -1.5907 -1.6080
C -1.6147 -1.5815 -1.6113
C -1.6147 -1.5871 -1.6143
C -1.6216 -1.5714 -1.6114
C -1.6260 -1.5695 -1.6156
C -1.6181 -1.5665 -1.6086
C -1.6223 -1.5631 -1.6073
C -1.6257 -1.5557 -1.6064
C -1.6185 -1.5654 -1.6032
C -1.6206 -1.5596 -1.5999
C -1.6173 -1.5870 -1.5992
C -1.6181 -1.5930 -1.5997
C -1.6162 -1.5851 -1.6022
C -1.6147 -1.5799 -1.6017
C -1.6173 -1.5900 -1.6053
C -1.6140 -1.5914 -1.6085
C -1.6209 -1.5974 -1.6065
C -1.6193 -1.6042 -1.6075
C -1.6215 -1.6020 -1.6075
C -1.6258 -1.5913 -1.6059
C -1.6234 -1.5855 -1.6065
C -1.6332 -1.5949 -1.6039
C -1.6199 -1.5875 -1.6039
C -1.6211 -1.5854 -1.6016
C -1.6204 -1.5880 -1.6043
C -1.6160 -1.5918 -1.6073
C -1.6158 -1.5976 -1.6080
C -1.6111 -1.5879 -1.6110
C -1.6202 -1.5907 -1.6062
C -1.6241 -1.5949 -1.6045
C -1.6171 -1.5902 -1.6082
C -1.6222 -1.5855 -1.6039
C -1.6252 -1.5856 -1.6036
C -1.6183 -1.5833 -1.6042
C -1.6242 -1.5846 -1.6022
C -1.6233 -1.5788 -1.6016
C -1.6314 -1.5868 -1.6005
C -1.6344 -1.5836 -1.5984
C -1.6344 -1.5916 -1.6014
C -1.6320 -1.5935 -1.6029
C -1.6405 -1.5926 -1.6008
C -1.6423 -1.5907 -1.6000
C -1.6413 -1.5991 -1.6022
C -1.6385 -1.6019 -1.6038
C -1.6455 -1.6007 -1.5997
C -1.6413 -1.6003 -1.6046
C -1.6391 -1.6012 -1.6074
C -1.6436 -1.6021 -1.6046
C -1.6407 -1.5970 -1.6043
C -1.6351 -1.5970 -1.6041
C -1.6442 -1.5952 -1.6023
C -1.6428 -1.5888 -1.5993
C -1.6464 -1.5858 -1.5991
C -1.6406 -1.5891 -1.5996
C -1.6390 -1.5917 -1.6001
C -1.6437 -1.5856 -1.5974
C -1.6460 -1.5820 -1.5958
C -1.6460 -1.5904 -1.5973
C -1.6472 -1.5876 -1.5960
C -1.6507 -1.5946 -1.5968
C -1.6489 -1.5888 -1.5965
C -1.6551 -1.5988 -1.5918
C -1.6507 -1.5982 -1.6041
C -1.6420 -1.5955 -1.6000
C -1.6405 -1.5973 -1.6016
C -1.6393 -1.5828 -1.5981
C -1.6399 -1.5853 -1.5995
C -1.6351 -1.5762 -1.5971
C -1.6355 -1.5735 -1.5957
C -1.6310 -1.5737 -1.5994
C -1.6291 -1.5758 -1.6012
C -1.6315 -1.5689 -1.6002
C -1.6295 -1.5721 -1.5977
C -1.6297 -1.5676 -1.5953
C -1.6280 -1.5762 -1.5985
C -1.6280 -1.5804 -1.5998
C -1.6272 -1.5756 -1.5968
C -1.6287 -1.5727 -1.5954
C -1.6279 -1.5805 -1.5973
C -1.6253 -1.5848 -1.5900
C -1.6342 -1.5693 -1.5994
C -1.6344 -1.5633 -1.6069
C -1.6345 -1.5685 -1.5922
C -1.6381 -1.5688 -1.6001
C -1.6273 -1.5920 -1.6065
C -1.6232 -1.5968 -1.6087
C -1.6231 -1.5727 -1.5952
C -1.6191 -1.5737 -1.5978
C -1.6229 -1.5683 -1.5919
C -1.6253 -1.5660 -1.5907
C -1.6183 -1.5659 -1.5897
C -1.6163 -1.5651 -1.5904
C -1.6204 -1.5618 -1.5861
C -1.6247 -1.5642 -1.5863
C -1.6179 -1.5596 -1.5858
C -1.6224 -1.5587 -1.5835
C -1.6260 -1.5591 -1.5877
C -1.6271 -1.5614 -1.5935
C -1.6254 -1.5554 -1.5837
C -1.6282 -1.5551 -1.5859
C -1.6231 -1.5521 -1.5759
C -1.6222 -1.5480 -1.5691
C -1.6255 -1.5467 -1.5706
C -1.6176 -1.5459 -1.5621
C -1.6161 -1.5430 -1.5561
C -1.6140 -1.5473 -1.5616
C -1.6103 -1.5453 -1.5559
C -1.6149 -1.5518 -1.5683
C -1.6131 -1.5533 -1.5692
C -1.6201 -1.5542 -1.5754
C -1.6151 -1.5681 -1.5928
C -1.6177 -1.5705 -1.5953
C -1.6101 -1.5681 -1.5925
C -1.6075 -1.5671 -1.5880
C -1.6078 -1.5708 -1.5932
C -1.6036 -1.5710 -1.5917
C -1.6092 -1.5683 -1.5920
C -1.6087 -1.5780 -1.5944
C -1.6107 -1.5799 -1.5943
C -1.6088 -1.5805 -1.5932
138
REAL frame=182
C -1.6196 -1.5855 -1.5952
C -1.6208 -1.5850 -1.5934
C -1.6194 -1.5825 -1.5941
C -1.6187 -1.5868 -1.5950
C -1.6172 -1.5869 -1.5967
C -1.6132 -1.5857 -1.5988
C -1.6192 -1.5879 -1.5989
C -1.6176 -1.5857 -1.5942
C -1.6216 -1.5879 -1.5922
C -1.6136 -1.5819 -1.5946
C -1.6106 -1.5800 -1.5947
C -1.6149 -1.5810 -1.5961
C -1.6167 -1.5786 -1.5933
C -1.6105 -1.5763 -1.5981
C -1.6088 -1.5696 -1.5953
C -1.6072 -1.5808 -1.5981
C -1.6135 -1.5751 -1.6036
C -1.6113 -1.5833 -1.6078
C -1.6076 -1.5907 -1.6078
C -1.6147 -1.5815 -1.6115
C -1.6143 -1.5871 -1.6146
C -1.6217 -1.5714 -1.6114
C -1.6259 -1.5694 -1.6157
C -1.6178 -1.5664 -1.6093
C -1.6221 -1.5630 -1.6074
C -1.6256 -1.5555 -1.6066
C -1.6185 -1.5654 -1.6033
C -1.6209 -1.5593 -1.6000
C -1.6172 -1.5868 -1.5991
C -1.6182 -1.5930 -1.5999
C -1.6162 -1.5850 -1.6023
C -1.6149 -1.5800 -1.6015
C -1.6174 -1.5901 -1.6052
C -1.6141 -1.5914 -1.6084
C -1.6210 -1.5974 -1.6065
C -1.6197 -1.6041 -1.6073
C -1.6211 -1.6021 -1.6074
C -1.6257 -1.5913 -1.6059
C -1.6234 -1.5856 -1.6066
C -1.6331 -1.5949 -1.6038
C -1.6198 -1.5875 -1.6039
C -1.6211 -1.5853 -1.6016
C -1.6205 -1.5882 -1.6044
C -1.6161 -1.5918 -1.6073
C -1.6158 -1.5975 -1.6071
C -1.6112 -1.5879 -1.6109
C -1.6203 -1.5907 -1.6062
C -1.6241 -1.5945 -1.6045
C -1.6177 -1.5906 -1.6082
C -1.6221 -1.5854 -1.6038
C -1.6251 -1.5857 -1.6039
C -1.6184 -1.5835 -1.6044
C -1.6241 -1.5844 -1.6021
C -1.6231 -1.5787 -1.6015
C -1.6316 -1.5869 -1.6005
C -1.6345 -1.5836 -1.5984
C -1.6344 -1.5915 -1.6014
C -1.6320 -1.5933 -1.6025
C -1.6406 -1.5926 -1.6008
C -1.6422 -1.5905 -1.5998
C -1.6412 -1.5991 -1.6020
C -1.6382 -1.6021 -1.6042
C -1.6458 -1.6010 -1.5998
C -1.6413 -1.6004 -1.6047
C -1.6390 -1.6013 -1.6073
C -1.6437 -1.6021 -1.6042
C -1.6406 -1.5970 -1.6045
C -1.6353 -1.5969 -1.6041
C -1.6443 -1.5951 -1.6022
C -1.6427 -1.5889 -1.5994
C -1.6464 -1.5858 -1.5992
C -1.6406 -1.5891 -1.5995
C -1.6400 -1.5916 -1.5996
C -1.6437 -1.5857 -1.5976
C -1.6456 -1.5822 -1.5959
C -1.6459 -1.5903 -1.5972
C -1.6473 -1.5877 -1.5958
C -1.6508 -1.5946 -1.5969
C -1.6485 -1.5891 -1.5960
C -1.6552 -1.5989 -1.5915
C -1.6509 -1.5977 -1.6042
C -1.6420 -1.5954 -1.6000
C -1.6403 -1.5971 -1.6017
C -1.6394 -1.5829 -1.5980
C -1.6399 -1.5853 -1.5995
C -1.6350 -1.5762 -1.5972
C -1.6352 -1.5737 -1.5961
C -1.6310 -1.5735 -1.5994
C -1.6289 -1.5760 -1.6008
C -1.6315 -1.5688 -1.6003
C -1.6296 -1.5720 -1.5979
C -1.6297 -1.5676 -1.5953
C -1.6280 -1.5763 -1.5985
C -1.6281 -1.5801 -1.5999
C -1.6274 -1.5756 -1.5968
C -1.6290 -1.5723 -1.5957
C -1.6280 -1.5805 -1.5974
C -1.6251 -1.5847 -1.5902
C -1.6342 -1.5693 -1.5994
C -1.6351 -1.5635 -1.6066
C -1.6343 -1.5682 -1.5924
C -1.6380 -1.5690 -1.6003
C -1.6272 -1.5920 -1.6065
C -1.6230 -1.5969 -1.6086
C -1.6231 -1.5727 -1.5952
C -1.6191 -1.5738 -1.5978
C -1.6228 -1.5685 -1.5918
C -1.6256 -1.5654 -1.5916
C -1.6183 -1.5659 -1.5898
C -1.6164 -1.5647 -1.5903
C -1.6203 -1.5618 -1.5861
C -1.6245 -1.5641 -1.5859
C -1.6180 -1.5597 -1.5854
C -1.6224 -1.5587 -1.5833
C -1.6259 -1.5592 -1.5876
C -1.6266 -1.5620 -1.5934
C -1.6254 -1.5553 -1.5838
C -1.6280 -1.5551 -1.5861
C -1.6231 -1.5523 -1.5758
C -1.6222 -1.5481 -1.5692
C -1.6255 -1.5467 -1.5703
C -1.6176 -1.5459 -1.5619
C -1.6163 -1.5429 -1.5560
C -1.6140 -1.5472 -1.5616
C -1.6101 -1.5455 -1.5560
C -1.6150 -1.5517 -1.5683
C -1.6132 -1.5533 -1.5689
C -1.6201 -1.5544 -1.5754
C -1.6152 -1.5680 -1.5927
C -1.6177 -1.5704 -1.5953
C -1.6103 -1.5680 -1.5925
C -1.6077 -1.5672 -1.5876
C -1.6078 -1.5707 -1.5933
C -1.6036 -1.5710 -1.5917
C -1.6093 -1.5687 -1.5922
C -1.6087 -1.5781 -1.5944
C -1.6108 -1.5800 -1.5944
C -1.6088 -1.5806 -1.5932
138
REAL frame=183
C -1.6196 -1.5855 -1.5952
C -1.6211 -1.5852 -1.5934
C -1.6195 -1.5824 -1.5938
C -1.6184 -1.5866 -1.5949
C -1.6171 -1.5870 -1.5967
C -1.6134 -1.5867 -1.5984
C -1.6192 -1.5881 -1.5991
C -1.6176 -1.5856 -1.5942
C -1.6216 -1.5879 -1.5922
C -1.6137 -1.5819 -1.5945
C -1.6104 -1.5796 -1.5949
C -1.6149 -1.5809 -1.5961
C -1.6163 -1.5786 -1.5933
C -1.6106 -1.5764 -1.5980
C -1.6087 -1.5694 -1.5954
C -1.6071 -1.5808 -1.5983
C -1.6134 -1.5750 -1.6035
C -1.6113 -1.5832 -1.6077
C -1.6071 -1.5908 -1.6077
C -1.6147 -1.5814 -1.6117
C -1.6137 -1.5872 -1.6148
C -1.6219 -1.5714 -1.6114
C -1.6258 -1.5693 -1.6157
C -1.6176 -1.5662 -1.6100
C -1.6219 -1.5629 -1.6074
C -1.6257 -1.5552 -1.6070
C -1.6186 -1.5654 -1.6034
C -1.6211 -1.5591 -1.6002
C -1.6171 -1.5867 -1.5990
C -1.6182 -1.5929 -1.6000
C -1.6162 -1.5850 -1.6023
C -1.6150 -1.5801 -1.6014
C -1.6176 -1.5902 -1.6052
C -1.6142 -1.5914 -1.6085
C -1.6211 -1.5974 -1.6065
C -1.6200 -1.6037 -1.6070
C -1.6206 -1.6021 -1.6071
C -1.6257 -1.5912 -1.6061
C -1.6233 -1.5856 -1.6067
C -1.6331 -1.5949 -1.6037
C -1.6197 -1.5875 -1.6039
C -1.6210 -1.5853 -1.6015
C -1.6206 -1.5884 -1.6045
C -1.6163 -1.5918 -1.6073
C -1.6159 -1.5974 -1.6066
C -1.6112 -1.5881 -1.6105
C -1.6204 -1.5908 -1.6063
C -1.6242 -1.5942 -1.6045
C -1.6184 -1.5909 -1.6082
C -1.6220 -1.5854 -1.6038
C -1.6249 -1.5858 -1.6040
C -1.6184 -1.5836 -1.6045
C -1.6240 -1.5844 -1.6020
C -1.6230 -1.5788 -1.6014
C -1.6317 -1.5869 -1.6005
C -1.6346 -1.5835 -1.5984
C -1.6344 -1.5914 -1.6015
C -1.6321 -1.5931 -1.6022
C -1.6406 -1.5925 -1.6009
C -1.6423 -1.5904 -1.5997
C -1.6412 -1.5990 -1.6020
C -1.6381 -1.6022 -1.6046
C -1.6461 -1.6013 -1.5997
C -1.6413 -1.6004 -1.6047
C -1.6390 -1.6014 -1.6071
C -1.6437 -1.6022 -1.6038
C -1.6405 -1.5972 -1.6045
C -1.6354 -1.5967 -1.6041
C -1.6445 -1.5951 -1.6021
C -1.6427 -1.5890 -1.5995
C -1.6464 -1.5859 -1.5993
C -1.6407 -1.5891 -1.5993
C -1.6408 -1.5914 -1.5993
C -1.6435 -1.5858 -1.5978
C -1.6455 -1.5823 -1.5962
C -1.6458 -1.5903 -1.5971
C -1.6475 -1.5880 -1.5957
C -1.6509 -1.5946 -1.5969
C -1.6482 -1.5894 -1.5953
C -1.6552 -1.5989 -1.5913
C -1.6514 -1.5973 -1.6042
C -1.6421 -1.5953 -1.6000
C -1.6402 -1.5970 -1.6017
C -1.6394 -1.5829 -1.5980
C -1.6399 -1.5853 -1.5995
C -1.6349 -1.5761 -1.5974
C -1.6348 -1.5739 -1.5964
C -1.6310 -1.5733 -1.5993
C -1.6288 -1.5762 -1.6004
C -1.6313 -1.5687 -1.6004
C -1.6296 -1.5719 -1.5979
C -1.6297 -1.5676 -1.5954
C -1.6280 -1.5765 -1.5985
C -1.6282 -1.5797 -1.6000
C -1.6275 -1.5755 -1.5968
C -1.6295 -1.5720 -1.5960
C -1.6281 -1.5805 -1.5975
C -1.6246 -1.5845 -1.5901
C -1.6343 -1.5693 -1.5993
C -1.6356 -1.5637 -1.6064
C -1.6341 -1.5678 -1.5925
C -1.6381 -1.5691 -1.6004
C -1.6272 -1.5920 -1.6065
C -1.6226 -1.5970 -1.6082
C -1.6231 -1.5727 -1.5954
C -1.6192 -1.5739 -1.5978
C -1.6228 -1.5686 -1.5916
C -1.6257 -1.5652 -1.5922
C -1.6183 -1.5659 -1.5899
C -1.6162 -1.5642 -1.5900
C -1.6203 -1.5617 -1.5861
C -1.6242 -1.5638 -1.5853
C -1.6180 -1.5597 -1.5850
C -1.6223 -1.5586 -1.5832
C -1.6257 -1.5592 -1.5876
C -1.6264 -1.5627 -1.5933
C -1.6254 -1.5552 -1.5838
C -1.6277 -1.5551 -1.5862
C -1.6231 -1.5525 -1.5758
C -1.6222 -1.5481 -1.5693
C -1.6254 -1.5466 -1.5698
C -1.6176 -1.5458 -1.5618
C -1.6165 -1.5426 -1.5559
C -1.6140 -1.5473 -1.5616
C -1.6098 -1.5456 -1.5560
C -1.6150 -1.5517 -1.5684
C -1.6133 -1.5532 -1.5684
C -1.6202 -1.5545 -1.5755
C -1.6153 -1.5680 -1.5926
C -1.6177 -1.5703 -1.5952
C -1.6104 -1.5680 -1.5926
C -1.6077 -1.5674 -1.5874
C -1.6078 -1.5707 -1.5932
C -1.6036 -1.5710 -1.5918
C -1.6095 -1.5690 -1.5925
C -1.6087 -1.5781 -1.5943
C -1.6109 -1.5800 -1.5944
C -1.6088 -1.5807 -1.5932
138
REAL frame=184
C -1.6196 -1.5855 -1.5951
C -1.6215 -1.5855 -1.5937
C -1.6195 -1.5823 -1.5939
C -1.6182 -1.5865 -1.5948
C -1.6171 -1.5870 -1.5968
C -1.6137 -1.5877 -1.5978
C -1.6190 -1.5885 -1.5992
C -1.6176 -1.5856 -1.5941
C -1.6215 -1.5878 -1.5922
C -1.6138 -1.5819 -1.5945
C -1.6102 -1.5792 -1.5951
C -1.6150 -1.5808 -1.5962
C -1.6160 -1.5785 -1.5934
C -1.6107 -1.5766 -1.5980
C -1.6085 -1.5690 -1.5957
C -1.6069 -1.5808 -1.5984
C -1.6133 -1.5750 -1.6034
C -1.6112 -1.5832 -1.6076
C -1.6065 -1.5909 -1.6075
C -1.6148 -1.5813 -1.6119
C -1.6131 -1.5873 -1.6151
C -1.6220 -1.5713 -1.6114
C -1.6257 -1.5692 -1.6157
C -1.6174 -1.5661 -1.6106
C -1.6217 -1.5629 -1.6074
C -1.6258 -1.5549 -1.6075
C -1.6186 -1.5652 -1.6036
C -1.6210 -1.5588 -1.6003
C -1.6171 -1.5867 -1.5991
C -1.6182 -1.5928 -1.6000
C -1.6162 -1.5850 -1.6024
C -1.6151 -1.5801 -1.6013
C -1.6178 -1.5903 -1.6053
C -1.6142 -1.5912 -1.6088
C -1.6211 -1.5973 -1.6064
C -1.6203 -1.6030 -1.6066
C -1.6201 -1.6020 -1.6066
C -1.6256 -1.5912 -1.6062
C -1.6233 -1.5856 -1.6067
C -1.6331 -1.5949 -1.6036
C -1.6196 -1.5876 -1.6038
C -1.6210 -1.5852 -1.6015
C -1.6206 -1.5885 -1.6046
C -1.6165 -1.5918 -1.6074
C -1.6160 -1.5974 -1.6065
C -1.6112 -1.5882 -1.6097
C -1.6206 -1.5910 -1.6063
C -1.6242 -1.5939 -1.6045
C -1.6190 -1.5911 -1.6082
C -1.6219 -1.5854 -1.6038
C -1.6248 -1.5857 -1.6039
C -1.6183 -1.5834 -1.6046
C -1.6240 -1.5843 -1.6019
C -1.6230 -1.5790 -1.6012
C -1.6319 -1.5868 -1.6006
C -1.6347 -1.5836 -1.5984
C -1.6344 -1.5913 -1.6015
C -1.6321 -1.5929 -1.6019
C -1.6406 -1.5924 -1.6009
C -1.6426 -1.5904 -1.6000
C -1.6413 -1.5991 -1.6020
C -1.6381 -1.6023 -1.6047
C -1.6461 -1.6017 -1.5993
C -1.6413 -1.6004 -1.6048
C -1.6390 -1.6015 -1.6070
C -1.6436 -1.6024 -1.6035
C -1.6405 -1.5974 -1.6045
C -1.6355 -1.5965 -1.6042
C -1.6446 -1.5950 -1.6021
C -1.6427 -1.5891 -1.5997
C -1.6464 -1.5859 -1.5994
C -1.6408 -1.5890 -1.5991
C -1.6414 -1.5911 -1.5993
C -1.6433 -1.5859 -1.5980
C -1.6455 -1.5823 -1.5965
C -1.6457 -1.5904 -1.5970
C -1.6477 -1.5884 -1.5955
C -1.6510 -1.5945 -1.5970
C -1.6481 -1.5897 -1.5946
C -1.6552 -1.5988 -1.5911
C -1.6521 -1.5970 -1.6043
C -1.6421 -1.5952 -1.6000
C -1.6401 -1.5967 -1.6017
C -1.6395 -1.5829 -1.5980
C -1.6400 -1.5854 -1.5995
C -1.6348 -1.5761 -1.5976
C -1.6343 -1.5741 -1.5968
C -1.6310 -1.5731 -1.5993
C -1.6288 -1.5763 -1.6001
C -1.6310 -1.5687 -1.6003
C -1.6296 -1.5719 -1.5979
C -1.6296 -1.5676 -1.5954
C -1.6280 -1.5766 -1.5986
C -1.6283 -1.5795 -1.6001
C -1.6277 -1.5754 -1.5968
C -1.6300 -1.5719 -1.5960
C -1.6282 -1.5806 -1.5976
C -1.6241 -1.5842 -1.5898
C -1.6344 -1.5693 -1.5993
C -1.6359 -1.5639 -1.6062
C -1.6340 -1.5674 -1.5927
C -1.6381 -1.5692 -1.6004
C -1.6271 -1.5920 -1.6065
C -1.6221 -1.5972 -1.6075
C -1.6230 -1.5727 -1.5955
C -1.6193 -1.5740 -1.5977
C -1.6228 -1.5688 -1.5916
C -1.6253 -1.5650 -1.5923
C -1.6183 -1.5658 -1.5900
C -1.6159 -1.5638 -1.5896
C -1.6203 -1.5618 -1.5860
C -1.6239 -1.5635 -1.5846
C -1.6180 -1.5596 -1.5848
C -1.6222 -1.5586 -1.5830
C -1.6255 -1.5593 -1.5877
C -1.6263 -1.5633 -1.5932
C -1.6255 -1.5552 -1.5838
C -1.6274 -1.5550 -1.5862
C -1.6231 -1.5526 -1.5759
C -1.6222 -1.5482 -1.5693
C -1.6252 -1.5466 -1.5692
C -1.6176 -1.5456 -1.5616
C -1.6168 -1.5422 -1.5560
C -1.6141 -1.5474 -1.5616
C -1.6097 -1.5456 -1.5560
C -1.6151 -1.5517 -1.5685
C -1.6131 -1.5531 -1.5678
C -1.6202 -1.5546 -1.5755
C -1.6154 -1.5680 -1.5926
C -1.6177 -1.5703 -1.5952
C -1.6105 -1.5679 -1.5926
C -1.6078 -1.5675 -1.5873
C -1.6078 -1.5707 -1.5932
C -1.6036 -1.5707 -1.5920
C -1.6096 -1.5693 -1.5927
C -1.6087 -1.5781 -1.5942
C -1.6109 -1.5801 -1.5945
C -1.6088 -1.5807 -1.5932
138
REAL frame=185
C -1.6196 -1.5854 -1.5949
C -1.6220 -1.5861 -1.5940
C -1.6194 -1.5821 -1.5942
C -1.6181 -1.5864 -1.5947
C -1.6171 -1.5871 -1.5970
C -1.6141 -1.5886 -1.5972
C -1.6189 -1.5889 -1.5992
C -1.6177 -1.5855 -1.5940
C -1.6215 -1.5877 -1.5922
C -1.6138 -1.5819 -1.5944
C -1.6100 -1.5788 -1.5952
C -1.6150 -1.5808 -1.5962
C -1.6160 -1.5781 -1.5937
C -1.6107 -1.5767 -1.5980
C -1.6084 -1.5688 -1.5959
C -1.6069 -1.5809 -1.5984
C -1.6132 -1.5750 -1.6032
C -1.6111 -1.5832 -1.6076
C -1.6060 -1.5909 -1.6073
C -1.6148 -1.5812 -1.6121
C -1.6124 -1.5874 -1.6153
C -1.6220 -1.5711 -1.6115
C -1.6257 -1.5692 -1.6157
C -1.6172 -1.5661 -1.6110
C -1.6215 -1.5629 -1.6074
C -1.6261 -1.5548 -1.6079
C -1.6186 -1.5650 -1.6037
C -1.6209 -1.5586 -1.6004
C -1.6170 -1.5868 -1.5992
C -1.6182 -1.5926 -1.6000
C -1.6161 -1.5850 -1.6023
C -1.6152 -1.5800 -1.6013
C -1.6179 -1.5904 -1.6054
C -1.6142 -1.5910 -1.6091
C -1.6212 -1.5973 -1.6064
C -1.6205 -1.6022 -1.6062
C -1.6197 -1.6019 -1.6061
C -1.6256 -1.5913 -1.6063
C -1.6232 -1.5856 -1.6068
C -1.6331 -1.5948 -1.6035
C -1.6195 -1.5877 -1.6038
C -1.6210 -1.5851 -1.6015
C -1.6205 -1.5885 -1.6046
C -1.6168 -1.5917 -1.6074
C -1.6163 -1.5975 -1.6068
C -1.6112 -1.5884 -1.6087
C -1.6207 -1.5911 -1.6062
C -1.6242 -1.5937 -1.6045
C -1.6194 -1.5912 -1.6083
C -1.6218 -1.5854 -1.6038
C -1.6247 -1.5855 -1.6036
C -1.6181 -1.5832 -1.6046
C -1.6240 -1.5844 -1.6019
C -1.6230 -1.5793 -1.6009
C -1.6319 -1.5866 -1.6007
C -1.6348 -1.5837 -1.5984
C -1.6344 -1.5912 -1.6014
C -1.6321 -1.5927 -1.6018
C -1.6405 -1.5923 -1.6010
C -1.6431 -1.5904 -1.6004
C -1.6415 -1.5992 -1.6021
C -1.6383 -1.6023 -1.6046
C -1.6461 -1.6020 -1.5987
C -1.6412 -1.6004 -1.6048
C -1.6391 -1.6015 -1.6069
C -1.6435 -1.6026 -1.6034
C -1.6405 -1.5976 -1.6044
C -1.6355 -1.5963 -1.6042
C -1.6446 -1.5949 -1.6021
C -1.6427 -1.5892 -1.5998
C -1.6463 -1.5859 -1.5994
C -1.6409 -1.5890 -1.5990
C -1.6416 -1.5910 -1.5995
C -1.6431 -1.5860 -1.5981
C -1.6456 -1.5822 -1.5970
C -1.6457 -1.5905 -1.5969
C -1.6477 -1.5888 -1.5954
C -1.6511 -1.5945 -1.5971
C -1.6482 -1.5900 -1.5940
C -1.6552 -1.5987 -1.5908
C -1.6529 -1.5967 -1.6043
C -1.6421 -1.5952 -1.6000
C -1.6401 -1.5965 -1.6016
C -1.6396 -1.5828 -1.5981
C -1.6401 -1.5854 -1.5994
C -1.6346 -1.5761 -1.5977
C -1.6340 -1.5743 -1.5972
C -1.6310 -1.5728 -1.5993
C -1.6289 -1.5762 -1.6000
C -1.6306 -1.5688 -1.6003
C -1.6296 -1.5718 -1.5978
C -1.6296 -1.5675 -1.5955
C -1.6280 -1.5767 -1.5986
C -1.6284 -1.5795 -1.6001
C -1.6278 -1.5753 -1.5968
C -1.6305 -1.5720 -1.5959
C -1.6283 -1.5807 -1.5977
C -1.6237 -1.5838 -1.5894
C -1.6345 -1.5694 -1.5993
C -1.6361 -1.5640 -1.6062
C -1.6340 -1.5670 -1.5928
C -1.6381 -1.5693 -1.6002
C -1.6271 -1.5920 -1.6065
C -1.6216 -1.5973 -1.6067
C -1.6229 -1.5728 -1.5956
C -1.6193 -1.5741 -1.5977
C -1.6229 -1.5689 -1.5915
C -1.6246 -1.5651 -1.5919
C -1.6183 -1.5656 -1.5901
C -1.6155 -1.5635 -1.5892
C -1.6203 -1.5618 -1.5859
C -1.6237 -1.5632 -1.5840
C -1.6179 -1.5593 -1.5848
C -1.6221 -1.5585 -1.5829
C -1.6253 -1.5594 -1.5877
C -1.6263 -1.5637 -1.5932
C -1.6255 -1.5552 -1.5837
C -1.6272 -1.5549 -1.5859
C -1.6231 -1.5527 -1.5760
C -1.6223 -1.5482 -1.5692
C -1.6249 -1.5466 -1.5686
C -1.6176 -1.5453 -1.5616
C -1.6170 -1.5417 -1.5561
C -1.6141 -1.5475 -1.5616
C -1.6097 -1.5456 -1.5559
C -1.6152 -1.5517 -1.5685
C -1.6129 -1.5530 -1.5672
C -1.6202 -1.5546 -1.5756
C -1.6154 -1.5680 -1.5926
C -1.6178 -1.5702 -1.5951
C -1.6106 -1.5678 -1.5927
C -1.6078 -1.5676 -1.5875
C -1.6078 -1.5707 -1.5932
C -1.6035 -1.5704 -1.5922
C -1.6097 -1.5694 -1.5928
C -1.6086 -1.5780 -1.5941
C -1.6110 -1.5802 -1.5946
C -1.6088 -1.5808 -1.5932
138
REAL frame=186
C -1.6196 -1.5854 -1.5948
C -1.6224 -1.5867 -1.5944
C -1.6193 -1.5819 -1.5947
C -1.6182 -1.5864 -1.5946
C -1.6172 -1.5871 -1.5970
C -1.6143 -1.5890 -1.5968
C -1.6189 -1.5893 -1.5991
C -1.6177 -1.5855 -1.5940
C -1.6215 -1.5877 -1.5922
C -1.6139 -1.5819 -1.5944
C -1.6099 -1.5786 -1.5951
C -1.6150 -1.5807 -1.5962
C -1.6163 -1.5777 -1.5941
C -1.6107 -1.5767 -1.5980
C -1.6083 -1.5687 -1.5961
C -1.6070 -1.5811 -1.5982
C -1.6131 -1.5751 -1.6031
C -1.6110 -1.5831 -1.6075
C -1.6056 -1.5909 -1.6072
C -1.6149 -1.5812 -1.6122
C -1.6119 -1.5874 -1.6153
C -1.6219 -1.5710 -1.6116
C -1.6256 -1.5691 -1.6157
C -1.6170 -1.5662 -1.6112
C -1.6214 -1.5629 -1.6075
C -1.6262 -1.5547 -1.6081
C -1.6186 -1.5648 -1.6038
C -1.6207 -1.5583 -1.6005
C -1.6170 -1.5868 -1.5994
C -1.6182 -1.5924 -1.6000
C -1.6161 -1.5849 -1.6023
C -1.6153 -1.5798 -1.6014
C -1.6179 -1.5904 -1.6056
C -1.6142 -1.5909 -1.6094
C -1.6213 -1.5973 -1.6063
C -1.6206 -1.6016 -1.6058
C -1.6195 -1.6017 -1.6057
C -1.6257 -1.5913 -1.6064
C -1.6232 -1.5857 -1.6068
C -1.6331 -1.5948 -1.6034
C -1.6195 -1.5878 -1.6037
C -1.6210 -1.5851 -1.6015
C -1.6204 -1.5885 -1.6046
C -1.6170 -1.5917 -1.6074
C -1.6167 -1.5975 -1.6075
C -1.6113 -1.5886 -1.6079
C -1.6209 -1.5913 -1.6062
C -1.6243 -1.5936 -1.6043
C -1.6197 -1.5911 -1.6083
C -1.6217 -1.5855 -1.6039
C -1.6246 -1.5852 -1.6032
C -1.6179 -1.5828 -1.6044
C -1.6240 -1.5844 -1.6020
C -1.6231 -1.5795 -1.6006
C -1.6319 -1.5864 -1.6008
C -1.6350 -1.5838 -1.5984
C -1.6345 -1.5910 -1.6014
C -1.6320 -1.5926 -1.6017
C -1.6405 -1.5922 -1.6011
C -1.6435 -1.5905 -1.6009
C -1.6417 -1.5993 -1.6022
C -1.6385 -1.6023 -1.6044
C -1.6459 -1.6024 -1.5981
C -1.6411 -1.6004 -1.6047
C -1.6393 -1.6016 -1.6069
C -1.6435 -1.6028 -1.6036
C -1.6406 -1.5976 -1.6041
C -1.6356 -1.5961 -1.6044
C -1.6447 -1.5949 -1.6021
C -1.6427 -1.5892 -1.5998
C -1.6463 -1.5859 -1.5994
C -1.6411 -1.5889 -1.5989
C -1.6416 -1.5909 -1.5996
C -1.6429 -1.5860 -1.5981
C -1.6458 -1.5820 -1.5975
C -1.6458 -1.5906 -1.5969
C -1.6477 -1.5892 -1.5954
C -1.6511 -1.5944 -1.5971
C -1.6486 -1.5902 -1.5936
C -1.6552 -1.5985 -1.5906
C -1.6535 -1.5966 -1.6043
C -1.6421 -1.5951 -1.6000
C -1.6400 -1.5963 -1.6016
C -1.6395 -1.5827 -1.5982
C -1.6401 -1.5855 -1.5993
C -1.6346 -1.5761 -1.5979
C -1.6337 -1.5745 -1.5974
C -1.6310 -1.5726 -1.5992
C -1.6292 -1.5761 -1.6001
C -1.6303 -1.5689 -1.6002
C -1.6296 -1.5718 -1.5976
C -1.6296 -1.5675 -1.5957
C -1.6280 -1.5768 -1.5988
C -1.6285 -1.5797 -1.6000
C -1.6279 -1.5752 -1.5969
C -1.6308 -1.5722 -1.5957
C -1.6284 -1.5807 -1.5978
C -1.6235 -1.5835 -1.5890
C -1.6346 -1.5695 -1.5993
C -1.6362 -1.5641 -1.6063
C -1.6340 -1.5668 -1.5929
C -1.6381 -1.5695 -1.5997
C -1.6271 -1.5920 -1.6065
C -1.6213 -1.5975 -1.6060
C -1.6228 -1.5727 -1.5957
C -1.6194 -1.5742 -1.5978
C -1.6230 -1.5689 -1.5915
C -1.6238 -1.5654 -1.5912
C -1.6183 -1.5655 -1.5902
C -1.6152 -1.5635 -1.5890
C -1.6203 -1.5618 -1.5857
C -1.6235 -1.5630 -1.5836
C -1.6177 -1.5590 -1.5850
C -1.6220 -1.5585 -1.5829
C -1.6251 -1.5595 -1.5877
C -1.6264 -1.5638 -1.5933
C -1.6256 -1.5552 -1.5836
C -1.6269 -1.5548 -1.5855
C -1.6231 -1.5527 -1.5762
C -1.6223 -1.5483 -1.5690
C -1.6245 -1.5466 -1.5683
C -1.6176 -1.5451 -1.5615
C -1.6172 -1.5413 -1.5562
C -1.6141 -1.5475 -1.5615
C -1.6098 -1.5456 -1.5558
C -1.6153 -1.5518 -1.5685
C -1.6126 -1.5530 -1.5670
C -1.6202 -1.5546 -1.5757
C -1.6154 -1.5681 -1.5926
C -1.6180 -1.5702 -1.5950
C -1.6107 -1.5678 -1.5927
C -1.6078 -1.5675 -1.5879
C -1.6079 -1.5707 -1.5932
C -1.6035 -1.5699 -1.5925
C -1.6096 -1.5694 -1.5928
C -1.6086 -1.5778 -1.5940
C -1.6110 -1.5803 -1.5946
C -1.6088 -1.5809 -1.5933
138
REAL frame=187
C -1.6196 -1.5853 -1.5946
C -1.6227 -1.5872 -1.5945
C -1.6194 -1.5817 -1.5952
C -1.6184 -1.5864 -1.5944
C -1.6173 -1.5872 -1.5970
C -1.6142 -1.5890 -1.5967
C -1.6189 -1.5896 -1.5990
C -1.6177 -1.5855 -1.5939
C -1.6215 -1.5876 -1.5921
C -1.6139 -1.5819 -1.5945
C -1.6100 -1.5787 -1.5949
C -1.6149 -1.5806 -1.5961
C -1.6168 -1.5772 -1.5945
C -1.6107 -1.5768 -1.5981
C -1.6084 -1.5688 -1.5962
C -1.6072 -1.5814 -1.5979
C -1.6131 -1.5751 -1.6030
C -1.6109 -1.5831 -1.6074
C -1.6053 -1.5908 -1.6070
C -1.6150 -1.5811 -1.6123
C -1.6115 -1.5874 -1.6153
C -1.6218 -1.5708 -1.6117
C -1.6256 -1.5691 -1.6157
C -1.6168 -1.5664 -1.6112
C -1.6214 -1.5629 -1.6076
C -1.6263 -1.5548 -1.6080
C -1.6186 -1.5646 -1.6038
C -1.6203 -1.5580 -1.6006
C -1.6169 -1.5869 -1.5996
C -1.6182 -1.5922 -1.6000
C -1.6162 -1.5850 -1.6023
C -1.6154 -1.5797 -1.6014
C -1.6179 -1.5904 -1.6058
C -1.6142 -1.5907 -1.6097
C -1.6213 -1.5972 -1.6063
C -1.6206 -1.6013 -1.6057
C -1.6197 -1.6016 -1.6054
C -1.6257 -1.5913 -1.6064
C -1.6231 -1.5857 -1.6068
C -1.6331 -1.5947 -1.6033
C -1.6195 -1.5880 -1.6037
C -1.6209 -1.5850 -1.6015
C -1.6203 -1.5884 -1.6046
C -1.6172 -1.5917 -1.6074
C -1.6173 -1.5975 -1.6084
C -1.6114 -1.5887 -1.6073
C -1.6210 -1.5914 -1.6061
C -1.6244 -1.5938 -1.6041
C -1.6199 -1.5911 -1.6083
C -1.6217 -1.5856 -1.6040
C -1.6245 -1.5850 -1.6027
C -1.6176 -1.5825 -1.6042
C -1.6241 -1.5846 -1.6021
C -1.6233 -1.5797 -1.6003
C -1.6318 -1.5863 -1.6009
C -1.6351 -1.5839 -1.5985
C -1.6345 -1.5909 -1.6014
C -1.6318 -1.5924 -1.6017
C -1.6404 -1.5922 -1.6012
C -1.6439 -1.5907 -1.6013
C -1.6419 -1.5994 -1.6024
C -1.6389 -1.6023 -1.6041
C -1.6457 -1.6026 -1.5977
C -1.6410 -1.6004 -1.6047
C -1.6393 -1.6016 -1.6069
C -1.6434 -1.6029 -1.6040
C -1.6407 -1.5976 -1.6039
C -1.6356 -1.5960 -1.6045
C -1.6448 -1.5949 -1.6021
C -1.6428 -1.5892 -1.5998
C -1.6463 -1.5860 -1.5994
C -1.6414 -1.5889 -1.5989
C -1.6413 -1.5911 -1.5997
C -1.6428 -1.5860 -1.5980
C -1.6459 -1.5819 -1.5979
C -1.6458 -1.5906 -1.5970
C -1.6476 -1.5895 -1.5955
C -1.6511 -1.5943 -1.5971
C -1.6490 -1.5901 -1.5934
C -1.6552 -1.5984 -1.5904
C -1.6540 -1.5964 -1.6042
C -1.6421 -1.5951 -1.5999
C -1.6400 -1.5962 -1.6016
C -1.6394 -1.5826 -1.5983
C -1.6402 -1.5855 -1.5993
C -1.6345 -1.5761 -1.5981
C -1.6337 -1.5746 -1.5977
C -1.6309 -1.5725 -1.5991
C -1.6296 -1.5757 -1.6003
C -1.6301 -1.5689 -1.6001
C -1.6296 -1.5719 -1.5974
C -1.6296 -1.5674 -1.5958
C -1.6280 -1.5768 -1.5989
C -1.6286 -1.5800 -1.6000
C -1.6279 -1.5751 -1.5969
C -1.6310 -1.5724 -1.5956
C -1.6284 -1.5806 -1.5978
C -1.6235 -1.5833 -1.5887
C -1.6347 -1.5696 -1.5993
C -1.6361 -1.5642 -1.6066
C -1.6342 -1.5667 -1.5929
C -1.6381 -1.5696 -1.5991
C -1.6271 -1.5920 -1.6066
C -1.6211 -1.5977 -1.6055
C -1.6228 -1.5727 -1.5956
C -1.6194 -1.5743 -1.5978
C -1.6230 -1.5690 -1.5916
C -1.6231 -1.5658 -1.5905
C -1.6182 -1.5654 -1.5902
C -1.6150 -1.5636 -1.5889
C -1.6203 -1.5618 -1.5855
C -1.6235 -1.5630 -1.5833
C -1.6175 -1.5587 -1.5855
C -1.6219 -1.5586 -1.5830
C -1.6249 -1.5596 -1.5876
C -1.6265 -1.5635 -1.5934
C -1.6257 -1.5553 -1.5835
C -1.6267 -1.5548 -1.5850
C -1.6231 -1.5527 -1.5763
C -1.6223 -1.5483 -1.5688
C -1.6242 -1.5466 -1.5683
C -1.6177 -1.5450 -1.5615
C -1.6173 -1.5410 -1.5563
C -1.6141 -1.5475 -1.5614
C -1.6099 -1.5456 -1.5557
C -1.6155 -1.5519 -1.5685
C -1.6122 -1.5531 -1.5671
C -1.6202 -1.5546 -1.5757
C -1.6155 -1.5681 -1.5927
C -1.6181 -1.5702 -1.5950
C -1.6107 -1.5678 -1.5927
C -1.6079 -1.5673 -1.5884
C -1.6079 -1.5707 -1.5932
C -1.6034 -1.5695 -1.5927
C -1.6095 -1.5693 -1.5926
C -1.6086 -1.5777 -1.5939
C -1.6110 -1.5805 -1.5947
C -1.6088 -1.5809 -1.5934
138
REAL frame=188
C -1.6197 -1.5853 -1.5946
C -1.6228 -1.5876 -1.5945
C -1.6197 -1.5813 -1.5953
C -1.6185 -1.5864 -1.5943
C -1.6174 -1.5873 -1.5969
C -1.6139 -1.5886 -1.5969
C -1.6190 -1.5897 -1.5989
C -1.6177 -1.5855 -1.5939
C -1.6215 -1.5876 -1.5921
C -1.6139 -1.5818 -1.5946
C -1.6103 -1.5789 -1.5945
C -1.6149 -1.5806 -1.5961
C -1.6173 -1.5769 -1.5950
C -1.6106 -1.5767 -1.5982
C -1.6084 -1.5690 -1.5961
C -1.6075 -1.5816 -1.5976
C -1.6130 -1.5752 -1.6030
C -1.6108 -1.5830 -1.6073
C -1.6051 -1.5908 -1.6069
C -1.6151 -1.5811 -1.6122
C -1.6114 -1.5873 -1.6153
C -1.6217 -1.5708 -1.6118
C -1.6256 -1.5690 -1.6157
C -1.6165 -1.5667 -1.6110
C -1.6214 -1.5629 -1.6079
C -1.6263 -1.5550 -1.6077
C -1.6185 -1.5644 -1.6038
C -1.6200 -1.5577 -1.6006
C -1.6169 -1.5869 -1.5997
C -1.6182 -1.5920 -1.5999
C -1.6162 -1.5850 -1.6023
C -1.6155 -1.5797 -1.6015
C -1.6179 -1.5904 -1.6061
C -1.6142 -1.5907 -1.6099
C -1.6214 -1.5972 -1.6062
C -1.6206 -1.6013 -1.6057
C -1.6203 -1.6015 -1.6054
C -1.6257 -1.5913 -1.6062
C -1.6231 -1.5857 -1.6069
C -1.6330 -1.5947 -1.6033
C -1.6195 -1.5880 -1.6038
C -1.6209 -1.5850 -1.6015
C -1.6203 -1.5883 -1.6045
C -1.6175 -1.5917 -1.6073
C -1.6178 -1.5973 -1.6092
C -1.6117 -1.5888 -1.6071
C -1.6211 -1.5914 -1.6061
C -1.6245 -1.5940 -1.6038
C -1.6199 -1.5910 -1.6083
C -1.6216 -1.5857 -1.6040
C -1.6244 -1.5849 -1.6023
C -1.6174 -1.5823 -1.6041
C -1.6242 -1.5847 -1.6022
C -1.6234 -1.5799 -1.6001
C -1.6317 -1.5863 -1.6009
C -1.6351 -1.5839 -1.5985
C -1.6345 -1.5908 -1.6015
C -1.6316 -1.5923 -1.6018
C -1.6405 -1.5922 -1.6013
C -1.6440 -1.5907 -1.6015
C -1.6420 -1.5995 -1.6024
C -1.6392 -1.6024 -1.6040
C -1.6457 -1.6027 -1.5976
C -1.6409 -1.6004 -1.6046
C -1.6392 -1.6015 -1.6071
C -1.6434 -1.6029 -1.6045
C -1.6408 -1.5974 -1.6036
C -1.6356 -1.5959 -1.6046
C -1.6448 -1.5950 -1.6021
C -1.6428 -1.5891 -1.5998
C -1.6462 -1.5860 -1.5994
C -1.6416 -1.5889 -1.5990
C -1.6407 -1.5913 -1.5997
C -1.6428 -1.5860 -1.5978
C -1.6459 -1.5818 -1.5981
C -1.6459 -1.5907 -1.5972
C -1.6475 -1.5897 -1.5956
C -1.6511 -1.5942 -1.5970
C -1.6495 -1.5900 -1.5935
C -1.6552 -1.5983 -1.5904
C -1.6541 -1.5964 -1.6041
C -1.6421 -1.5951 -1.5999
C -1.6401 -1.5961 -1.6016
C -1.6392 -1.5825 -1.5985
C -1.6403 -1.5855 -1.5993
C -1.6345 -1.5760 -1.5982
C -1.6339 -1.5747 -1.5978
C -1.6308 -1.5724 -1.5990
C -1.6299 -1.5753 -1.6005
C -1.6300 -1.5689 -1.6001
C -1.6296 -1.5720 -1.5974
C -1.6296 -1.5673 -1.5958
C -1.6280 -1.5768 -1.5990
C -1.6286 -1.5804 -1.5999
C -1.6279 -1.5751 -1.5970
C -1.6309 -1.5726 -1.5954
C -1.6285 -1.5806 -1.5978
C -1.6237 -1.5833 -1.5886
C -1.6348 -1.5697 -1.5993
C -1.6360 -1.5643 -1.6070
C -1.6344 -1.5667 -1.5929
C -1.6381 -1.5697 -1.5985
C -1.6271 -1.5921 -1.6066
C -1.6211 -1.5979 -1.6054
C -1.6229 -1.5726 -1.5956
C -1.6194 -1.5745 -1.5979
C -1.6231 -1.5690 -1.5916
C -1.6229 -1.5664 -1.5899
C -1.6182 -1.5654 -1.5902
C -1.6149 -1.5638 -1.5891
C -1.6204 -1.5618 -1.5854
C -1.6235 -1.5632 -1.5833
C -1.6173 -1.5584 -1.5860
C -1.6218 -1.5588 -1.5831
C -1.6247 -1.5597 -1.5876
C -1.6266 -1.5630 -1.5934
C -1.6258 -1.5554 -1.5834
C -1.6266 -1.5548 -1.5846
C -1.6230 -1.5526 -1.5763
C -1.6223 -1.5483 -1.5687
C -1.6240 -1.5466 -1.5685
C -1.6177 -1.5449 -1.5615
C -1.6173 -1.5408 -1.5564
C -1.6140 -1.5474 -1.5613
C -1.6101 -1.5456 -1.5556
C -1.6156 -1.5520 -1.5684
C -1.6119 -1.5533 -1.5675
C -1.6201 -1.5546 -1.5758
C -1.6155 -1.5681 -1.5927
C -1.6183 -1.5702 -1.5949
C -1.6108 -1.5679 -1.5927
C -1.6081 -1.5669 -1.5891
C -1.6079 -1.5707 -1.5931
C -1.6034 -1.5692 -1.5930
C -1.6092 -1.5691 -1.5923
C -1.6087 -1.5776 -1.5939
C -1.6110 -1.5806 -1.5947
C -1.6087 -1.5809 -1.5935
138
REAL frame=189
C -1.6197 -1.5853 -1.5946
C -1.6228 -1.5877 -1.5943
C -1.6200 -1.5810 -1.5952
C -1.6185 -1.5864 -1.5942
C -1.6175 -1.5874 -1.5968
C -1.6136 -1.5878 -1.5973
C -1.6192 -1.5897 -1.5988
C -1.6177 -1.5856 -1.5939
C -1.6215 -1.5875 -1.5920
C -1.6139 -1.5817 -1.5946
C -1.6105 -1.5791 -1.5942
C -1.6148 -1.5805 -1.5962
C -1.6178 -1.5767 -1.5952
C -1.6106 -1.5767 -1.5983
C -1.6085 -1.5694 -1.5960
C -1.6078 -1.5818 -1.5974
C -1.6130 -1.5751 -1.6030
C -1.6106 -1.5829 -1.6073
C -1.6050 -1.5907 -1.6069
C -1.6151 -1.5811 -1.6121
C -1.6115 -1.5872 -1.6151
C -1.6215 -1.5708 -1.6119
C -1.6255 -1.5689 -1.6158
C -1.6162 -1.5670 -1.6106
C -1.6215 -1.5628 -1.6081
C -1.6262 -1.5551 -1.6074
C -1.6185 -1.5644 -1.6037
C -1.6197 -1.5573 -1.6006
C -1.6168 -1.5868 -1.5998
C -1.6182 -1.5919 -1.5999
C -1.6164 -1.5850 -1.6023
C -1.6154 -1.5797 -1.6016
C -1.6178 -1.5903 -1.6062
C -1.6143 -1.5908 -1.6101
C -1.6214 -1.5971 -1.6062
C -1.6206 -1.6016 -1.6059
C -1.6210 -1.6015 -1.6056
C -1.6258 -1.5913 -1.6061
C -1.6230 -1.5857 -1.6069
C -1.6330 -1.5947 -1.6032
C -1.6195 -1.5880 -1.6038
C -1.6209 -1.5850 -1.6015
C -1.6202 -1.5882 -1.6044
C -1.6177 -1.5918 -1.6072
C -1.6183 -1.5972 -1.6098
C -1.6120 -1.5889 -1.6075
C -1.6212 -1.5913 -1.6061
C -1.6247 -1.5944 -1.6036
C -1.6198 -1.5910 -1.6082
C -1.6216 -1.5858 -1.6040
C -1.6245 -1.5850 -1.6020
C -1.6173 -1.5822 -1.6039
C -1.6243 -1.5848 -1.6023
C -1.6236 -1.5799 -1.6002
C -1.6316 -1.5864 -1.6009
C -1.6352 -1.5839 -1.5986
C -1.6345 -1.5907 -1.6016
C -1.6315 -1.5922 -1.6019
C -1.6407 -1.5922 -1.6015
C -1.6438 -1.5907 -1.6016
C -1.6421 -1.5997 -1.6024
C -1.6395 -1.6025 -1.6039
C -1.6459 -1.6027 -1.5979
C -1.6409 -1.6005 -1.6045
C -1.6390 -1.6015 -1.6073
C -1.6433 -1.6029 -1.6050
C -1.6408 -1.5973 -1.6034
C -1.6357 -1.5957 -1.6047
C -1.6449 -1.5951 -1.6022
C -1.6428 -1.5890 -1.5997
C -1.6462 -1.5860 -1.5993
C -1.6418 -1.5889 -1.5992
C -1.6399 -1.5915 -1.5997
C -1.6429 -1.5859 -1.5977
C -1.6459 -1.5818 -1.5979
C -1.6459 -1.5907 -1.5973
C -1.6474 -1.5897 -1.5958
C -1.6511 -1.5941 -1.5968
C -1.6500 -1.5896 -1.5937
C -1.6552 -1.5983 -1.5903
C -1.6540 -1.5965 -1.6040
C -1.6421 -1.5951 -1.5999
C -1.6401 -1.5962 -1.6016
C -1.6389 -1.5825 -1.5985
C -1.6404 -1.5855 -1.5993
C -1.6345 -1.5760 -1.5983
C -1.6341 -1.5747 -1.5980
C -1.6307 -1.5724 -1.5989
C -1.6300 -1.5749 -1.6008
C -1.6300 -1.5687 -1.6001
C -1.6296 -1.5721 -1.5974
C -1.6295 -1.5672 -1.5958
C -1.6280 -1.5767 -1.5990
C -1.6285 -1.5807 -1.6000
C -1.6279 -1.5752 -1.5970
C -1.6306 -1.5727 -1.5954
C -1.6285 -1.5805 -1.5976
C -1.6242 -1.5835 -1.5887
C -1.6349 -1.5698 -1.5994
C -1.6359 -1.5645 -1.6075
C -1.6347 -1.5667 -1.5929
C -1.6380 -1.5698 -1.5979
C -1.6271 -1.5921 -1.6067
C -1.6214 -1.5982 -1.6057
C -1.6230 -1.5724 -1.5955
C -1.6195 -1.5746 -1.5979
C -1.6230 -1.5690 -1.5916
C -1.6233 -1.5668 -1.5895
C -1.6181 -1.5654 -1.5901
C -1.6150 -1.5640 -1.5893
C -1.6204 -1.5618 -1.5852
C -1.6236 -1.5636 -1.5835
C -1.6172 -1.5581 -1.5864
C -1.6217 -1.5589 -1.5833
C -1.6245 -1.5597 -1.5876
C -1.6267 -1.5624 -1.5935
C -1.6258 -1.5555 -1.5834
C -1.6265 -1.5549 -1.5843
C -1.6230 -1.5524 -1.5762
C -1.6223 -1.5482 -1.5687
C -1.6239 -1.5467 -1.5688
C -1.6178 -1.5450 -1.5614
C -1.6171 -1.5407 -1.5564
C -1.6140 -1.5473 -1.5612
C -1.6103 -1.5456 -1.5556
C -1.6157 -1.5521 -1.5683
C -1.6118 -1.5534 -1.5681
C -1.6201 -1.5545 -1.5758
C -1.6156 -1.5681 -1.5928
C -1.6185 -1.5702 -1.5948
C -1.6107 -1.5680 -1.5927
C -1.6083 -1.5666 -1.5898
C -1.6078 -1.5706 -1.5930
C -1.6034 -1.5690 -1.5932
C -1.6088 -1.5690 -1.5919
C -1.6088 -1.5776 -1.5938
C -1.6110 -1.5808 -1.5947
C -1.6087 -1.5808 -1.5936
138
REAL frame=190
C -1.6198 -1.5853 -1.5947
C -1.6227 -1.5875 -1.5939
C -1.6205 -1.5807 -1.5949
C -1.6184 -1.5862 -1.5941
C -1.6176 -1.5875 -1.5965
C -1.6133 -1.5868 -1.5977
C -1.6193 -1.5896 -1.5987
C -1.6177 -1.5857 -1.5940
C -1.6215 -1.5875 -1.5920
C -1.6139 -1.5817 -1.5947
C -1.6107 -1.5793 -1.5940
C -1.6148 -1.5805 -1.5963
C -1.6181 -1.5768 -1.5953
C -1.6105 -1.5767 -1.5984
C -1.6086 -1.5698 -1.5959
C -1.6080 -1.5818 -1.5974
C -1.6130 -1.5750 -1.6031
C -1.6105 -1.5828 -1.6073
C -1.6049 -1.5906 -1.6070
C -1.6152 -1.5811 -1.6119
C -1.6118 -1.5872 -1.6150
C -1.6213 -1.5708 -1.6121
C -1.6255 -1.5688 -1.6158
C -1.6160 -1.5673 -1.6103
C -1.6215 -1.5627 -1.6083
C -1.6260 -1.5552 -1.6073
C -1.6184 -1.5644 -1.6036
C -1.6195 -1.5570 -1.6006
C -1.6167 -1.5866 -1.5998
C -1.6182 -1.5918 -1.5999
C -1.6165 -1.5851 -1.6024
C -1.6154 -1.5799 -1.6016
C -1.6177 -1.5903 -1.6064
C -1.6143 -1.5909 -1.6102
C -1.6214 -1.5971 -1.6062
C -1.6206 -1.6021 -1.6061
C -1.6218 -1.6014 -1.6061
C -1.6259 -1.5913 -1.6058
C -1.6230 -1.5857 -1.6069
C -1.6330 -1.5946 -1.6032
C -1.6196 -1.5878 -1.6038
C -1.6209 -1.5850 -1.6015
C -1.6202 -1.5881 -1.6043
C -1.6179 -1.5918 -1.6071
C -1.6186 -1.5969 -1.6100
C -1.6125 -1.5891 -1.6082
C -1.6212 -1.5912 -1.6061
C -1.6248 -1.5947 -1.6034
C -1.6196 -1.5910 -1.6081
C -1.6216 -1.5859 -1.6040
C -1.6245 -1.5851 -1.6020
C -1.6173 -1.5823 -1.6039
C -1.6244 -1.5849 -1.6024
C -1.6237 -1.5799 -1.6004
C -1.6316 -1.5866 -1.6008
C -1.6353 -1.5839 -1.5987
C -1.6344 -1.5906 -1.6017
C -1.6315 -1.5921 -1.6020
C -1.6409 -1.5923 -1.6016
C -1.6436 -1.5906 -1.6014
C -1.6421 -1.5998 -1.6023
C -1.6398 -1.6027 -1.6040
C -1.6463 -1.6025 -1.5985
C -1.6410 -1.6007 -1.6044
C -1.6387 -1.6014 -1.6075
C -1.6433 -1.6029 -1.6053
C -1.6407 -1.5971 -1.6034
C -1.6358 -1.5956 -1.6047
C -1.6450 -1.5952 -1.6022
C -1.6429 -1.5889 -1.5997
C -1.6461 -1.5860 -1.5993
C -1.6421 -1.5889 -1.5993
C -1.6391 -1.5917 -1.5997
C -1.6431 -1.5857 -1.5975
C -1.6458 -1.5817 -1.5974
C -1.6459 -1.5907 -1.5975
C -1.6474 -1.5896 -1.5959
C -1.6511 -1.5940 -1.5966
C -1.6502 -1.5892 -1.5941
C -1.6551 -1.5985 -1.5904
C -1.6536 -1.5966 -1.6039
C -1.6421 -1.5952 -1.5999
C -1.6402 -1.5964 -1.6015
C -1.6387 -1.5826 -1.5985
C -1.6405 -1.5854 -1.5994
C -1.6344 -1.5760 -1.5984
C -1.6344 -1.5747 -1.5980
C -1.6306 -1.5724 -1.5987
C -1.6299 -1.5745 -1.6009
C -1.6301 -1.5685 -1.6000
C -1.6297 -1.5722 -1.5975
C -1.6295 -1.5672 -1.5958
C -1.6280 -1.5767 -1.5991
C -1.6282 -1.5808 -1.6003
C -1.6278 -1.5753 -1.5970
C -1.6301 -1.5727 -1.5954
C -1.6285 -1.5804 -1.5975
C -1.6247 -1.5838 -1.5888
C -1.6350 -1.5699 -1.5994
C -1.6359 -1.5647 -1.6079
C -1.6348 -1.5667 -1.5930
C -1.6380 -1.5699 -1.5976
C -1.6270 -1.5922 -1.6067
C -1.6218 -1.5985 -1.6063
C -1.6231 -1.5723 -1.5955
C -1.6195 -1.5747 -1.5979
C -1.6229 -1.5689 -1.5916
C -1.6242 -1.5671 -1.5893
C -1.6181 -1.5655 -1.5900
C -1.6153 -1.5643 -1.5897
C -1.6204 -1.5618 -1.5852
C -1.6236 -1.5641 -1.5838
C -1.6172 -1.5580 -1.5867
C -1.6216 -1.5590 -1.5834
C -1.6243 -1.5596 -1.5876
C -1.6266 -1.5618 -1.5935
C -1.6259 -1.5557 -1.5833
C -1.6265 -1.5551 -1.5843
C -1.6230 -1.5523 -1.5760
C -1.6223 -1.5482 -1.5687
C -1.6239 -1.5466 -1.5692
C -1.6178 -1.5451 -1.5614
C -1.6169 -1.5408 -1.5563
C -1.6141 -1.5471 -1.5611
C -1.6105 -1.5455 -1.5555
C -1.6158 -1.5521 -1.5682
C -1.6118 -1.5535 -1.5687
C -1.6201 -1.5544 -1.5758
C -1.6157 -1.5680 -1.5929
C -1.6187 -1.5702 -1.5947
C -1.6107 -1.5681 -1.5926
C -1.6085 -1.5663 -1.5907
C -1.6078 -1.5705 -1.5929
C -1.6035 -1.5690 -1.5933
C -1.6083 -1.5688 -1.5917
C -1.6090 -1.5776 -1.5937
C -1.6110 -1.5809 -1.5947
C -1.6086 -1.5807 -1.5937
138
REAL frame=191
C -1.6210 -1.5864 -1.5959
C -1.6235 -1.5882 -1.5946
C -1.6220 -1.5816 -1.5956
C -1.6192 -1.5871 -1.5952
C -1.6187 -1.5886 -1.5974
C -1.6142 -1.5869 -1.5991
C -1.6204 -1.5906 -1.5996
C -1.6187 -1.5868 -1.5951
C -1.6225 -1.5886 -1.5930
C -1.6149 -1.5827 -1.5958
C -1.6118 -1.5804 -1.5950
C -1.6159 -1.5815 -1.5975
C -1.6192 -1.5781 -1.5961
C -1.6115 -1.5777 -1.5995
C -1.6097 -1.5713 -1.5968
C -1.6091 -1.5828 -1.5987
C -1.6140 -1.5759 -1.6042
C -1.6114 -1.5839 -1.6083
C -1.6061 -1.5915 -1.6082
C -1.6163 -1.5822 -1.6127
C -1.6135 -1.5883 -1.6159
C -1.6222 -1.5720 -1.6133
C -1.6265 -1.5698 -1.6169
C -1.6170 -1.5687 -1.6110
C -1.6228 -1.5637 -1.6095
C -1.6268 -1.5562 -1.6085
C -1.6194 -1.5655 -1.6046
C -1.6204 -1.5580 -1.6016
C -1.6176 -1.5875 -1.6009
C -1.6192 -1.5929 -1.6011
C -1.6177 -1.5862 -1.6036
C -1.6164 -1.5811 -1.6028
C -1.6186 -1.5915 -1.6075
C -1.6154 -1.5921 -1.6112
C -1.6224 -1.5981 -1.6073
C -1.6215 -1.6036 -1.6075
C -1.6235 -1.6024 -1.6078
C -1.6269 -1.5925 -1.6067
C -1.6240 -1.5867 -1.6080
C -1.6341 -1.5957 -1.6043
C -1.6206 -1.5888 -1.6050
C -1.6220 -1.5862 -1.6027
C -1.6213 -1.5892 -1.6052
C -1.6191 -1.5929 -1.6080
C -1.6200 -1.5978 -1.6107
C -1.6141 -1.5903 -1.6101
C -1.6222 -1.5922 -1.6071
C -1.6259 -1.5959 -1.6045
C -1.6204 -1.5922 -1.6091
C -1.6227 -1.5871 -1.6051
C -1.6257 -1.5865 -1.6033
C -1.6184 -1.5837 -1.6049
C -1.6255 -1.5861 -1.6036
C -1.6248 -1.5809 -1.6018
C -1.6325 -1.5879 -1.6018
C -1.6363 -1.5850 -1.6000
C -1.6354 -1.5917 -1.6029
C -1.6326 -1.5932 -1.6032
C -1.6422 -1.5935 -1.6027
C -1.6444 -1.5917 -1.6022
C -1.6431 -1.6011 -1.6032
C -1.6409 -1.6041 -1.6052
C -1.6476 -1.6034 -1.6004
C -1.6421 -1.6019 -1.6055
C -1.6393 -1.6025 -1.6087
C -1.6444 -1.6041 -1.6065
C -1.6416 -1.5982 -1.6045
C -1.6370 -1.5966 -1.6057
C -1.6461 -1.5963 -1.6033
C -1.6440 -1.5899 -1.6008
C -1.6470 -1.5871 -1.6003
C -1.6433 -1.5901 -1.6006
C -1.6394 -1.5927 -1.6010
C -1.6443 -1.5867 -1.5986
C -1.6468 -1.5829 -1.5979
C -1.6469 -1.5918 -1.5988
C -1.6484 -1.5905 -1.5973
C -1.6522 -1.5950 -1.5975
C -1.6513 -1.5900 -1.5956
C -1.6561 -1.5998 -1.5916
C -1.6541 -1.5980 -1.6049
C -1.6432 -1.5965 -1.6010
C -1.6413 -1.5978 -1.6027
C -1.6396 -1.5838 -1.5995
C -1.6415 -1.5865 -1.6007
C -1.6354 -1.5772 -1.5996
C -1.6357 -1.5758 -1.5992
C -1.6316 -1.5736 -1.5998
C -1.6306 -1.5755 -1.6020
C -1.6314 -1.5695 -1.6010
C -1.6307 -1.5733 -1.5988
C -1.6305 -1.5683 -1.5970
C -1.6291 -1.5778 -1.6002
C -1.6289 -1.5818 -1.6017
C -1.6287 -1.5764 -1.5982
C -1.6306 -1.5737 -1.5967
C -1.6295 -1.5814 -1.5985
C -1.6262 -1.5851 -1.5902
C -1.6361 -1.5711 -1.6006
C -1.6371 -1.5660 -1.6093
C -1.6360 -1.5678 -1.5942
C -1.6390 -1.5711 -1.5986
C -1.6280 -1.5934 -1.6079
C -1.6233 -1.5999 -1.6082
C -1.6242 -1.5734 -1.5967
C -1.6206 -1.5758 -1.5991
C -1.6238 -1.5700 -1.5927
C -1.6265 -1.5686 -1.5906
C -1.6191 -1.5667 -1.5911
C -1.6166 -1.5655 -1.5911
C -1.6215 -1.5630 -1.5864
C -1.6247 -1.5656 -1.5852
C -1.6183 -1.5591 -1.5879
C -1.6226 -1.5603 -1.5847
C -1.6252 -1.5607 -1.5888
C -1.6275 -1.5627 -1.5947
C -1.6270 -1.5570 -1.5844
C -1.6277 -1.5565 -1.5857
C -1.6241 -1.5533 -1.5768
C -1.6233 -1.5492 -1.5700
C -1.6250 -1.5477 -1.5706
C -1.6189 -1.5463 -1.5626
C -1.6178 -1.5423 -1.5574
C -1.6152 -1.5482 -1.5623
C -1.6117 -1.5464 -1.5566
C -1.6169 -1.5532 -1.5693
C -1.6130 -1.5547 -1.5702
C -1.6211 -1.5555 -1.5769
C -1.6169 -1.5691 -1.5941
C -1.6199 -1.5713 -1.5958
C -1.6118 -1.5692 -1.5938
C -1.6098 -1.5673 -1.5928
C -1.6088 -1.5715 -1.5939
C -1.6046 -1.5701 -1.5946
C -1.6088 -1.5698 -1.5926
C -1.6102 -1.5787 -1.5948
C -1.6120 -1.5821 -1.5959
C -1.6096 -1.5816 -1.5949
138
REAL frame=192
C -1.6211 -1.5864 -1.5959
C -1.6234 -1.5880 -1.5943
C -1.6224 -1.5815 -1.5952
C -1.6189 -1.5869 -1.5952
C -1.6188 -1.5886 -1.5973
C -1.6142 -1.5864 -1.5992
C -1.6205 -1.5906 -1.5995
C -1.6188 -1.5868 -1.5951
C -1.6225 -1.5887 -1.5930
C -1.6149 -1.5828 -1.5958
C -1.6116 -1.5802 -1.5953
C -1.6158 -1.5814 -1.5977
C -1.6190 -1.5784 -1.5958
C -1.6115 -1.5776 -1.5995
C -1.6096 -1.5716 -1.5968
C -1.6091 -1.5825 -1.5992
C -1.6139 -1.5757 -1.6043
C -1.6113 -1.5838 -1.6083
C -1.6062 -1.5914 -1.6083
C -1.6162 -1.5821 -1.6125
C -1.6143 -1.5884 -1.6157
C -1.6220 -1.5721 -1.6135
C -1.6265 -1.5698 -1.6170
C -1.6169 -1.5687 -1.6108
C -1.6229 -1.5637 -1.6095
C -1.6266 -1.5560 -1.6090
C -1.6194 -1.5655 -1.6046
C -1.6203 -1.5581 -1.6016
C -1.6175 -1.5873 -1.6008
C -1.6192 -1.5929 -1.6011
C -1.6178 -1.5862 -1.6037
C -1.6165 -1.5812 -1.6029
C -1.6186 -1.5915 -1.6075
C -1.6153 -1.5922 -1.6112
C -1.6224 -1.5980 -1.6074
C -1.6213 -1.6038 -1.6077
C -1.6238 -1.6024 -1.6084
C -1.6270 -1.5925 -1.6065
C -1.6239 -1.5867 -1.6080
C -1.6341 -1.5957 -1.6043
C -1.6207 -1.5886 -1.6050
C -1.6221 -1.5863 -1.6027
C -1.6214 -1.5892 -1.6052
C -1.6192 -1.5929 -1.6080
C -1.6202 -1.5976 -1.6099
C -1.6148 -1.5905 -1.6109
C -1.6222 -1.5920 -1.6070
C -1.6259 -1.5959 -1.6047
C -1.6202 -1.5922 -1.6089
C -1.6227 -1.5872 -1.6050
C -1.6258 -1.5867 -1.6037
C -1.6186 -1.5842 -1.6051
C -1.6256 -1.5861 -1.6036
C -1.6248 -1.5808 -1.6023
C -1.6325 -1.5880 -1.6018
C -1.6363 -1.5850 -1.6001
C -1.6353 -1.5917 -1.6030
C -1.6328 -1.5932 -1.6033
C -1.6424 -1.5936 -1.6027
C -1.6444 -1.5916 -1.6019
C -1.6431 -1.6012 -1.6031
C -1.6409 -1.6043 -1.6052
C -1.6479 -1.6031 -1.6012
C -1.6422 -1.6020 -1.6056
C -1.6390 -1.6024 -1.6087
C -1.6445 -1.6042 -1.6065
C -1.6414 -1.5983 -1.6046
C -1.6372 -1.5965 -1.6057
C -1.6462 -1.5963 -1.6033
C -1.6441 -1.5899 -1.6009
C -1.6470 -1.5871 -1.6001
C -1.6435 -1.5902 -1.6006
C -1.6387 -1.5925 -1.6014
C -1.6445 -1.5866 -1.5987
C -1.6469 -1.5829 -1.5971
C -1.6469 -1.5917 -1.5988
C -1.6484 -1.5902 -1.5974
C -1.6522 -1.5949 -1.5973
C -1.6511 -1.5896 -1.5959
C -1.6560 -1.6000 -1.5916
C -1.6536 -1.5983 -1.6048
C -1.6432 -1.5966 -1.6011
C -1.6415 -1.5982 -1.6027
C -1.6396 -1.5839 -1.5994
C -1.6415 -1.5863 -1.6009
C -1.6354 -1.5772 -1.5996
C -1.6357 -1.5758 -1.5991
C -1.6316 -1.5736 -1.5998
C -1.6300 -1.5754 -1.6018
C -1.6316 -1.5693 -1.6006
C -1.6306 -1.5733 -1.5989
C -1.6304 -1.5682 -1.5969
C -1.6291 -1.5778 -1.6002
C -1.6285 -1.5817 -1.6021
C -1.6286 -1.5765 -1.5982
C -1.6301 -1.5736 -1.5969
C -1.6295 -1.5814 -1.5983
C -1.6265 -1.5853 -1.5903
C -1.6362 -1.5711 -1.6007
C -1.6374 -1.5662 -1.6095
C -1.6361 -1.5676 -1.5943
C -1.6390 -1.5712 -1.5989
C -1.6280 -1.5935 -1.6079
C -1.6239 -1.6001 -1.6087
C -1.6242 -1.5735 -1.5968
C -1.6207 -1.5758 -1.5990
C -1.6237 -1.5699 -1.5927
C -1.6276 -1.5692 -1.5908
C -1.6192 -1.5669 -1.5910
C -1.6169 -1.5657 -1.5912
C -1.6215 -1.5631 -1.5866
C -1.6245 -1.5659 -1.5854
C -1.6183 -1.5593 -1.5878
C -1.6225 -1.5603 -1.5847
C -1.6251 -1.5606 -1.5888
C -1.6273 -1.5626 -1.5947
C -1.6270 -1.5571 -1.5843
C -1.6279 -1.5568 -1.5862
C -1.6241 -1.5533 -1.5766
C -1.6233 -1.5491 -1.5701
C -1.6252 -1.5476 -1.5707
C -1.6190 -1.5464 -1.5625
C -1.6175 -1.5426 -1.5571
C -1.6152 -1.5481 -1.5622
C -1.6118 -1.5461 -1.5564
C -1.6169 -1.5532 -1.5693
C -1.6133 -1.5546 -1.5702
C -1.6210 -1.5555 -1.5768
C -1.6171 -1.5692 -1.5942
C -1.6200 -1.5713 -1.5957
C -1.6118 -1.5692 -1.5938
C -1.6100 -1.5674 -1.5937
C -1.6088 -1.5715 -1.5939
C -1.6046 -1.5702 -1.5947
C -1.6083 -1.5698 -1.5924
C -1.6103 -1.5787 -1.5947
C -1.6119 -1.5822 -1.5959
C -1.6095 -1.5816 -1.5949
138
REAL frame=193
C -1.6212 -1.5864 -1.5958
C -1.6234 -1.5878 -1.5941
C -1.6226 -1.5815 -1.5950
C -1.6185 -1.5867 -1.5954
C -1.6188 -1.5884 -1.5972
C -1.6143 -1.5862 -1.5992
C -1.6204 -1.5907 -1.5994
C -1.6189 -1.5869 -1.5952
C -1.6225 -1.5888 -1.5930
C -1.6149 -1.5828 -1.5958
C -1.6113 -1.5800 -1.5956
C -1.6158 -1.5814 -1.5978
C -1.6185 -1.5787 -1.5954
C -1.6115 -1.5776 -1.5995
C -1.6095 -1.5717 -1.5969
C -1.6090 -1.5820 -1.5998
C -1.6139 -1.5755 -1.6043
C -1.6111 -1.5838 -1.6083
C -1.6064 -1.5913 -1.6084
C -1.6162 -1.5821 -1.6124
C -1.6151 -1.5886 -1.6155
C -1.6219 -1.5721 -1.6136
C -1.6264 -1.5697 -1.6171
C -1.6170 -1.5685 -1.6107
C -1.6230 -1.5637 -1.6095
C -1.6264 -1.5558 -1.6097
C -1.6193 -1.5654 -1.6047
C -1.6203 -1.5583 -1.6016
C -1.6175 -1.5871 -1.6008
C -1.6192 -1.5929 -1.6011
C -1.6179 -1.5862 -1.6038
C -1.6167 -1.5811 -1.6031
C -1.6186 -1.5915 -1.6075
C -1.6152 -1.5923 -1.6111
C -1.6224 -1.5980 -1.6075
C -1.6212 -1.6036 -1.6079
C -1.6238 -1.6024 -1.6090
C -1.6271 -1.5926 -1.6064
C -1.6238 -1.5867 -1.6079
C -1.6342 -1.5956 -1.6042
C -1.6207 -1.5884 -1.6050
C -1.6221 -1.5864 -1.6028
C -1.6215 -1.5893 -1.6052
C -1.6193 -1.5928 -1.6079
C -1.6203 -1.5973 -1.6088
C -1.6154 -1.5906 -1.6115
C -1.6221 -1.5919 -1.6069
C -1.6259 -1.5956 -1.6050
C -1.6200 -1.5922 -1.6088
C -1.6228 -1.5872 -1.6050
C -1.6258 -1.5871 -1.6043
C -1.6188 -1.5848 -1.6052
C -1.6256 -1.5861 -1.6037
C -1.6247 -1.5806 -1.6029
C -1.6324 -1.5880 -1.6018
C -1.6362 -1.5850 -1.6003
C -1.6353 -1.5917 -1.6031
C -1.6329 -1.5933 -1.6035
C -1.6425 -1.5936 -1.6027
C -1.6446 -1.5916 -1.6017
C -1.6432 -1.6014 -1.6029
C -1.6409 -1.6044 -1.6050
C -1.6480 -1.6028 -1.6018
C -1.6423 -1.6020 -1.6057
C -1.6387 -1.6025 -1.6086
C -1.6446 -1.6046 -1.6062
C -1.6412 -1.5983 -1.6047
C -1.6373 -1.5964 -1.6056
C -1.6463 -1.5962 -1.6032
C -1.6443 -1.5899 -1.6010
C -1.6469 -1.5869 -1.6000
C -1.6436 -1.5902 -1.6006
C -1.6383 -1.5923 -1.6018
C -1.6446 -1.5865 -1.5988
C -1.6471 -1.5829 -1.5966
C -1.6470 -1.5916 -1.5989
C -1.6484 -1.5898 -1.5974
C -1.6522 -1.5948 -1.5972
C -1.6507 -1.5893 -1.5961
C -1.6560 -1.6000 -1.5916
C -1.6532 -1.5985 -1.6046
C -1.6432 -1.5968 -1.6011
C -1.6416 -1.5986 -1.6027
C -1.6398 -1.5838 -1.5993
C -1.6414 -1.5862 -1.6011
C -1.6353 -1.5773 -1.5996
C -1.6356 -1.5758 -1.5991
C -1.6316 -1.5736 -1.5998
C -1.6293 -1.5755 -1.6015
C -1.6318 -1.5692 -1.6001
C -1.6305 -1.5733 -1.5990
C -1.6304 -1.5682 -1.5969
C -1.6291 -1.5778 -1.6001
C -1.6281 -1.5816 -1.6023
C -1.6285 -1.5765 -1.5981
C -1.6297 -1.5734 -1.5970
C -1.6295 -1.5815 -1.5983
C -1.6265 -1.5854 -1.5903
C -1.6363 -1.5711 -1.6007
C -1.6378 -1.5665 -1.6096
C -1.6361 -1.5674 -1.5944
C -1.6391 -1.5714 -1.5993
C -1.6280 -1.5936 -1.6079
C -1.6242 -1.6002 -1.6090
C -1.6242 -1.5737 -1.5969
C -1.6209 -1.5758 -1.5989
C -1.6237 -1.5698 -1.5927
C -1.6284 -1.5699 -1.5909
C -1.6192 -1.5670 -1.5909
C -1.6171 -1.5657 -1.5912
C -1.6215 -1.5633 -1.5869
C -1.6244 -1.5660 -1.5855
C -1.6184 -1.5596 -1.5875
C -1.6224 -1.5602 -1.5847
C -1.6249 -1.5606 -1.5889
C -1.6269 -1.5627 -1.5948
C -1.6271 -1.5571 -1.5842
C -1.6282 -1.5571 -1.5866
C -1.6241 -1.5534 -1.5764
C -1.6232 -1.5489 -1.5701
C -1.6254 -1.5474 -1.5707
C -1.6190 -1.5464 -1.5626
C -1.6174 -1.5430 -1.5569
C -1.6153 -1.5482 -1.5622
C -1.6118 -1.5457 -1.5562
C -1.6169 -1.5530 -1.5694
C -1.6137 -1.5545 -1.5698
C -1.6210 -1.5554 -1.5767
C -1.6172 -1.5693 -1.5942
C -1.6201 -1.5713 -1.5956
C -1.6118 -1.5692 -1.5938
C -1.6102 -1.5676 -1.5946
C -1.6087 -1.5714 -1.5938
C -1.6046 -1.5702 -1.5948
C -1.6079 -1.5698 -1.5923
C -1.6104 -1.5786 -1.5946
C -1.6118 -1.5823 -1.5959
C -1.6095 -1.5815 -1.5950
138
REAL frame=194
C -1.6213 -1.5864 -1.5957
C -1.6236 -1.5878 -1.5941
C -1.6226 -1.5815 -1.5950
C -1.6182 -1.5866 -1.5956
C -1.6189 -1.5882 -1.5973
C -1.6144 -1.5865 -1.5989
C -1.6203 -1.5908 -1.5994
C -1.6190 -1.5869 -1.5952
C -1.6225 -1.5888 -1.5929
C -1.6149 -1.5828 -1.5958
C -1.6111 -1.5797 -1.5961
C -1.6158 -1.5813 -1.5979
C -1.6180 -1.5789 -1.5952
C -1.6114 -1.5775 -1.5994
C -1.6093 -1.5717 -1.5970
C -1.6089 -1.5815 -1.6004
C -1.6138 -1.5754 -1.6043
C -1.6110 -1.5838 -1.6083
C -1.6066 -1.5913 -1.6084
C -1.6162 -1.5822 -1.6123
C -1.6160 -1.5888 -1.6152
C -1.6217 -1.5720 -1.6137
C -1.6263 -1.5697 -1.6171
C -1.6171 -1.5681 -1.6108
C -1.6231 -1.5637 -1.6094
C -1.6264 -1.5556 -1.6104
C -1.6192 -1.5653 -1.6048
C -1.6203 -1.5588 -1.6015
C -1.6175 -1.5871 -1.6009
C -1.6192 -1.5929 -1.6011
C -1.6180 -1.5861 -1.6039
C -1.6169 -1.5808 -1.6033
C -1.6186 -1.5914 -1.6075
C -1.6150 -1.5923 -1.6110
C -1.6223 -1.5979 -1.6076
C -1.6211 -1.6031 -1.6081
C -1.6235 -1.6024 -1.6094
C -1.6271 -1.5927 -1.6063
C -1.6238 -1.5866 -1.6077
C -1.6342 -1.5955 -1.6042
C -1.6207 -1.5884 -1.6050
C -1.6221 -1.5864 -1.6028
C -1.6217 -1.5893 -1.6053
C -1.6195 -1.5927 -1.6079
C -1.6203 -1.5969 -1.6076
C -1.6159 -1.5907 -1.6117
C -1.6221 -1.5919 -1.6069
C -1.6258 -1.5951 -1.6054
C -1.6198 -1.5921 -1.6087
C -1.6229 -1.5873 -1.6050
C -1.6258 -1.5874 -1.6048
C -1.6191 -1.5854 -1.6054
C -1.6256 -1.5861 -1.6037
C -1.6246 -1.5806 -1.6034
C -1.6324 -1.5879 -1.6019
C -1.6362 -1.5851 -1.6004
C -1.6353 -1.5918 -1.6031
C -1.6330 -1.5935 -1.6038
C -1.6425 -1.5937 -1.6026
C -1.6451 -1.5916 -1.6016
C -1.6434 -1.6015 -1.6029
C -1.6408 -1.6044 -1.6047
C -1.6480 -1.6027 -1.6020
C -1.6422 -1.6021 -1.6058
C -1.6386 -1.6026 -1.6085
C -1.6447 -1.6050 -1.6060
C -1.6412 -1.5984 -1.6047
C -1.6375 -1.5963 -1.6057
C -1.6463 -1.5961 -1.6032
C -1.6445 -1.5899 -1.6012
C -1.6468 -1.5868 -1.5998
C -1.6436 -1.5901 -1.6006
C -1.6380 -1.5920 -1.6020
C -1.6447 -1.5864 -1.5989
C -1.6475 -1.5829 -1.5963
C -1.6471 -1.5915 -1.5988
C -1.6484 -1.5895 -1.5974
C -1.6522 -1.5947 -1.5970
C -1.6502 -1.5892 -1.5962
C -1.6561 -1.5999 -1.5916
C -1.6529 -1.5987 -1.6045
C -1.6432 -1.5969 -1.6011
C -1.6416 -1.5990 -1.6027
C -1.6400 -1.5837 -1.5994
C -1.6414 -1.5862 -1.6012
C -1.6353 -1.5774 -1.5995
C -1.6353 -1.5758 -1.5989
C -1.6316 -1.5737 -1.6000
C -1.6285 -1.5756 -1.6012
C -1.6320 -1.5692 -1.5996
C -1.6304 -1.5732 -1.5991
C -1.6304 -1.5682 -1.5969
C -1.6292 -1.5778 -1.6001
C -1.6278 -1.5817 -1.6024
C -1.6283 -1.5766 -1.5981
C -1.6295 -1.5733 -1.5971
C -1.6295 -1.5816 -1.5983
C -1.6263 -1.5854 -1.5902
C -1.6364 -1.5711 -1.6007
C -1.6383 -1.5667 -1.6095
C -1.6362 -1.5671 -1.5945
C -1.6392 -1.5716 -1.5999
C -1.6281 -1.5936 -1.6079
C -1.6242 -1.6003 -1.6090
C -1.6240 -1.5739 -1.5969
C -1.6210 -1.5757 -1.5989
C -1.6237 -1.5696 -1.5928
C -1.6287 -1.5706 -1.5907
C -1.6193 -1.5672 -1.5909
C -1.6171 -1.5658 -1.5910
C -1.6214 -1.5635 -1.5871
C -1.6243 -1.5660 -1.5855
C -1.6185 -1.5602 -1.5873
C -1.6223 -1.5601 -1.5847
C -1.6248 -1.5605 -1.5889
C -1.6265 -1.5630 -1.5948
C -1.6270 -1.5572 -1.5840
C -1.6287 -1.5572 -1.5868
C -1.6241 -1.5535 -1.5763
C -1.6232 -1.5487 -1.5700
C -1.6257 -1.5472 -1.5706
C -1.6191 -1.5464 -1.5626
C -1.6173 -1.5434 -1.5567
C -1.6154 -1.5483 -1.5622
C -1.6118 -1.5455 -1.5561
C -1.6169 -1.5529 -1.5694
C -1.6142 -1.5543 -1.5692
C -1.6209 -1.5555 -1.5766
C -1.6173 -1.5694 -1.5942
C -1.6202 -1.5712 -1.5956
C -1.6119 -1.5691 -1.5938
C -1.6104 -1.5678 -1.5953
C -1.6087 -1.5715 -1.5938
C -1.6046 -1.5702 -1.5949
C -1.6076 -1.5699 -1.5923
C -1.6104 -1.5785 -1.5945
C -1.6117 -1.5824 -1.5959
C -1.6096 -1.5816 -1.5950
138
REAL frame=195
C -1.6214 -1.5864 -1.5955
C -1.6239 -1.5881 -1.5941
C -1.6225 -1.5815 -1.5953
C -1.6181 -1.5866 -1.5957
C -1.6189 -1.5879 -1.5973
C -1.6146 -1.5872 -1.5984
C -1.6202 -1.5909 -1.5995
C -1.6191 -1.5869 -1.5952
C -1.6225 -1.5889 -1.5929
C -1.6149 -1.5829 -1.5959
C -1.6110 -1.5795 -1.5964
C -1.6157 -1.5813 -1.5979
C -1.6174 -1.5790 -1.5951
C -1.6114 -1.5773 -1.5995
C -1.6091 -1.5717 -1.5972
C -1.6088 -1.5810 -1.6009
C -1.6137 -1.5753 -1.6043
C -1.6110 -1.5838 -1.6083
C -1.6069 -1.5913 -1.6084
C -1.6161 -1.5822 -1.6123
C -1.6167 -1.5890 -1.6150
C -1.6216 -1.5720 -1.6136
C -1.6262 -1.5697 -1.6172
C -1.6173 -1.5675 -1.6110
C -1.6232 -1.5637 -1.6094
C -1.6265 -1.5554 -1.6108
C -1.6191 -1.5652 -1.6048
C -1.6204 -1.5591 -1.6015
C -1.6176 -1.5871 -1.6010
C -1.6191 -1.5929 -1.6011
C -1.6180 -1.5861 -1.6039
C -1.6172 -1.5805 -1.6035
C -1.6187 -1.5914 -1.6074
C -1.6149 -1.5922 -1.6109
C -1.6223 -1.5979 -1.6078
C -1.6210 -1.6023 -1.6081
C -1.6230 -1.6025 -1.6096
C -1.6271 -1.5928 -1.6063
C -1.6237 -1.5866 -1.6076
C -1.6343 -1.5955 -1.6042
C -1.6208 -1.5884 -1.6050
C -1.6221 -1.5864 -1.6028
C -1.6218 -1.5894 -1.6054
C -1.6196 -1.5927 -1.6079
C -1.6203 -1.5964 -1.6067
C -1.6162 -1.5909 -1.6116
C -1.6221 -1.5919 -1.6068
C -1.6257 -1.5944 -1.6059
C -1.6197 -1.5920 -1.6087
C -1.6230 -1.5873 -1.6050
C -1.6257 -1.5876 -1.6053
C -1.6194 -1.5860 -1.6055
C -1.6256 -1.5861 -1.6037
C -1.6244 -1.5806 -1.6037
C -1.6324 -1.5877 -1.6020
C -1.6361 -1.5852 -1.6006
C -1.6354 -1.5919 -1.6031
C -1.6331 -1.5937 -1.6041
C -1.6425 -1.5937 -1.6024
C -1.6457 -1.5918 -1.6017
C -1.6435 -1.6016 -1.6030
C -1.6407 -1.6043 -1.6043
C -1.6479 -1.6026 -1.6018
C -1.6422 -1.6022 -1.6060
C -1.6386 -1.6027 -1.6084
C -1.6447 -1.6055 -1.6059
C -1.6413 -1.5984 -1.6046
C -1.6375 -1.5963 -1.6058
C -1.6464 -1.5960 -1.6032
C -1.6447 -1.5900 -1.6012
C -1.6467 -1.5867 -1.5996
C -1.6436 -1.5901 -1.6006
C -1.6380 -1.5919 -1.6022
C -1.6447 -1.5864 -1.5990
C -1.6480 -1.5828 -1.5965
C -1.6472 -1.5915 -1.5987
C -1.6484 -1.5892 -1.5974
C -1.6522 -1.5947 -1.5969
C -1.6497 -1.5891 -1.5961
C -1.6562 -1.5996 -1.5915
C -1.6530 -1.5987 -1.6044
C -1.6432 -1.5971 -1.6011
C -1.6417 -1.5994 -1.6027
C -1.6402 -1.5835 -1.5996
C -1.6413 -1.5861 -1.6013
C -1.6353 -1.5775 -1.5994
C -1.6348 -1.5757 -1.5988
C -1.6316 -1.5737 -1.6001
C -1.6278 -1.5757 -1.6009
C -1.6323 -1.5691 -1.5990
C -1.6302 -1.5732 -1.5991
C -1.6304 -1.5682 -1.5970
C -1.6291 -1.5778 -1.6000
C -1.6277 -1.5820 -1.6023
C -1.6282 -1.5766 -1.5981
C -1.6294 -1.5733 -1.5972
C -1.6294 -1.5817 -1.5983
C -1.6259 -1.5853 -1.5899
C -1.6365 -1.5711 -1.6007
C -1.6388 -1.5669 -1.6094
C -1.6364 -1.5668 -1.5946
C -1.6392 -1.5718 -1.6005
C -1.6282 -1.5937 -1.6079
C -1.6240 -1.6003 -1.6087
C -1.6239 -1.5741 -1.5969
C -1.6211 -1.5757 -1.5988
C -1.6237 -1.5695 -1.5929
C -1.6286 -1.5713 -1.5903
C -1.6195 -1.5674 -1.5909
C -1.6169 -1.5658 -1.5907
C -1.6213 -1.5637 -1.5873
C -1.6243 -1.5659 -1.5855
C -1.6186 -1.5608 -1.5871
C -1.6223 -1.5600 -1.5846
C -1.6248 -1.5605 -1.5889
C -1.6260 -1.5633 -1.5947
C -1.6270 -1.5572 -1.5839
C -1.6292 -1.5572 -1.5867
C -1.6241 -1.5536 -1.5763
C -1.6231 -1.5485 -1.5699
C -1.6258 -1.5470 -1.5704
C -1.6191 -1.5464 -1.5627
C -1.6173 -1.5435 -1.5566
C -1.6155 -1.5484 -1.5622
C -1.6117 -1.5454 -1.5561
C -1.6169 -1.5527 -1.5694
C -1.6147 -1.5541 -1.5686
C -1.6209 -1.5555 -1.5765
C -1.6174 -1.5696 -1.5942
C -1.6203 -1.5712 -1.5955
C -1.6120 -1.5690 -1.5938
C -1.6107 -1.5678 -1.5958
C -1.6087 -1.5715 -1.5938
C -1.6045 -1.5701 -1.5950
C -1.6076 -1.5701 -1.5923
C -1.6103 -1.5784 -1.5944
C -1.6117 -1.5824 -1.5960
C -1.6096 -1.5816 -1.5950
138
REAL frame=196
C -1.6215 -1.5863 -1.5953
C -1.6242 -1.5885 -1.5942
C -1.6224 -1.5816 -1.5956
C -1.6182 -1.5866 -1.5958
C -1.6190 -1.5877 -1.5974
C -1.6149 -1.5878 -1.5978
C -1.6201 -1.5909 -1.5996
C -1.6191 -1.5869 -1.5952
C -1.6225 -1.5890 -1.5929
C -1.6150 -1.5829 -1.5960
C -1.6110 -1.5796 -1.5966
C -1.6157 -1.5814 -1.5979
C -1.6170 -1.5789 -1.5952
C -1.6113 -1.5771 -1.5996
C -1.6089 -1.5716 -1.5975
C -1.6087 -1.5807 -1.6012
C -1.6136 -1.5752 -1.6042
C -1.6109 -1.5838 -1.6082
C -1.6072 -1.5913 -1.6082
C -1.6161 -1.5823 -1.6124
C -1.6173 -1.5892 -1.6149
C -1.6214 -1.5719 -1.6135
C -1.6261 -1.5697 -1.6172
C -1.6177 -1.5669 -1.6112
C -1.6233 -1.5636 -1.6094
C -1.6268 -1.5553 -1.6109
C -1.6190 -1.5651 -1.6049
C -1.6205 -1.5592 -1.6015
C -1.6177 -1.5872 -1.6011
C -1.6190 -1.5929 -1.6011
C -1.6180 -1.5859 -1.6040
C -1.6174 -1.5801 -1.6037
C -1.6188 -1.5913 -1.6074
C -1.6147 -1.5920 -1.6109
C -1.6223 -1.5978 -1.6080
C -1.6209 -1.6014 -1.6080
C -1.6224 -1.6026 -1.6098
C -1.6272 -1.5929 -1.6064
C -1.6237 -1.5865 -1.6074
C -1.6344 -1.5954 -1.6041
C -1.6209 -1.5886 -1.6050
C -1.6221 -1.5864 -1.6027
C -1.6219 -1.5894 -1.6056
C -1.6198 -1.5926 -1.6079
C -1.6204 -1.5961 -1.6062
C -1.6163 -1.5912 -1.6110
C -1.6221 -1.5919 -1.6067
C -1.6255 -1.5938 -1.6063
C -1.6195 -1.5919 -1.6086
C -1.6231 -1.5873 -1.6051
C -1.6255 -1.5877 -1.6056
C -1.6197 -1.5864 -1.6055
C -1.6255 -1.5860 -1.6037
C -1.6242 -1.5807 -1.6038
C -1.6324 -1.5875 -1.6022
C -1.6359 -1.5853 -1.6007
C -1.6355 -1.5920 -1.6031
C -1.6331 -1.5939 -1.6045
C -1.6425 -1.5938 -1.6024
C -1.6462 -1.5920 -1.6019
C -1.6437 -1.6017 -1.6031
C -1.6409 -1.6041 -1.6039
C -1.6478 -1.6028 -1.6012
C -1.6421 -1.6022 -1.6061
C -1.6387 -1.6030 -1.6083
C -1.6446 -1.6059 -1.6059
C -1.6415 -1.5984 -1.6044
C -1.6375 -1.5963 -1.6059
C -1.6464 -1.5959 -1.6031
C -1.6449 -1.5899 -1.6012
C -1.6467 -1.5866 -1.5995
C -1.6436 -1.5899 -1.6007
C -1.6382 -1.5919 -1.6021
C -1.6447 -1.5864 -1.5991
C -1.6484 -1.5826 -1.5971
C -1.6473 -1.5915 -1.5986
C -1.6484 -1.5891 -1.5973
C -1.6522 -1.5946 -1.5969
C -1.6493 -1.5892 -1.5959
C -1.6564 -1.5991 -1.5913
C -1.6533 -1.5986 -1.6044
C -1.6433 -1.5972 -1.6011
C -1.6416 -1.5996 -1.6027
C -1.6405 -1.5832 -1.5998
C -1.6412 -1.5861 -1.6014
C -1.6354 -1.5776 -1.5993
C -1.6344 -1.5757 -1.5986
C -1.6316 -1.5737 -1.6003
C -1.6273 -1.5756 -1.6008
C -1.6326 -1.5691 -1.5986
C -1.6301 -1.5731 -1.5991
C -1.6304 -1.5683 -1.5970
C -1.6291 -1.5777 -1.6000
C -1.6276 -1.5824 -1.6021
C -1.6282 -1.5767 -1.5981
C -1.6296 -1.5735 -1.5971
C -1.6294 -1.5819 -1.5984
C -1.6254 -1.5851 -1.5896
C -1.6365 -1.5710 -1.6008
C -1.6391 -1.5671 -1.6094
C -1.6367 -1.5665 -1.5946
C -1.6392 -1.5719 -1.6010
C -1.6283 -1.5937 -1.6078
C -1.6236 -1.6003 -1.6081
C -1.6237 -1.5742 -1.5968
C -1.6211 -1.5757 -1.5988
C -1.6238 -1.5694 -1.5930
C -1.6283 -1.5719 -1.5898
C -1.6197 -1.5675 -1.5910
C -1.6167 -1.5660 -1.5903
C -1.6212 -1.5638 -1.5875
C -1.6243 -1.5656 -1.5856
C -1.6187 -1.5614 -1.5872
C -1.6222 -1.5598 -1.5845
C -1.6247 -1.5606 -1.5888
C -1.6257 -1.5636 -1.5946
C -1.6270 -1.5572 -1.5838
C -1.6298 -1.5570 -1.5862
C -1.6241 -1.5537 -1.5763
C -1.6231 -1.5484 -1.5697
C -1.6260 -1.5468 -1.5701
C -1.6191 -1.5463 -1.5627
C -1.6174 -1.5435 -1.5567
C -1.6156 -1.5485 -1.5623
C -1.6117 -1.5457 -1.5562
C -1.6169 -1.5526 -1.5694
C -1.6152 -1.5539 -1.5682
C -1.6209 -1.5556 -1.5764
C -1.6174 -1.5697 -1.5941
C -1.6204 -1.5712 -1.5955
C -1.6121 -1.5689 -1.5939
C -1.6110 -1.5676 -1.5961
C -1.6086 -1.5715 -1.5938
C -1.6045 -1.5699 -1.5951
C -1.6076 -1.5703 -1.5924
C -1.6102 -1.5783 -1.5944
C -1.6116 -1.5824 -1.5960
C -1.6097 -1.5817 -1.5950
138
REAL frame=197
C -1.6216 -1.5862 -1.5952
C -1.6245 -1.5891 -1.5942
C -1.6223 -1.5816 -1.5957
C -1.6184 -1.5867 -1.5958
C -1.6190 -1.5875 -1.5975
C -1.6152 -1.5884 -1.5973
C -1.6201 -1.5908 -1.5998
C -1.6191 -1.5868 -1.5953
C -1.6226 -1.5891 -1.5928
C -1.6150 -1.5829 -1.5961
C -1.6113 -1.5799 -1.5967
C -1.6156 -1.5815 -1.5977
C -1.6168 -1.5786 -1.5955
C -1.6113 -1.5770 -1.5997
C -1.6088 -1.5714 -1.5977
C -1.6087 -1.5806 -1.6013
C -1.6135 -1.5752 -1.6042
C -1.6109 -1.5838 -1.6082
C -1.6075 -1.5913 -1.6079
C -1.6161 -1.5823 -1.6126
C -1.6177 -1.5892 -1.6149
C -1.6213 -1.5718 -1.6134
C -1.6259 -1.5697 -1.6173
C -1.6181 -1.5662 -1.6114
C -1.6233 -1.5635 -1.6094
C -1.6272 -1.5553 -1.6104
C -1.6189 -1.5650 -1.6049
C -1.6205 -1.5591 -1.6016
C -1.6179 -1.5872 -1.6012
C -1.6189 -1.5929 -1.6011
C -1.6180 -1.5858 -1.6040
C -1.6175 -1.5799 -1.6037
C -1.6189 -1.5912 -1.6073
C -1.6147 -1.5918 -1.6109
C -1.6223 -1.5977 -1.6081
C -1.6208 -1.6005 -1.6078
C -1.6219 -1.6026 -1.6099
C -1.6272 -1.5930 -1.6064
C -1.6237 -1.5865 -1.6072
C -1.6344 -1.5954 -1.6041
C -1.6210 -1.5888 -1.6051
C -1.6221 -1.5864 -1.6027
C -1.6220 -1.5894 -1.6057
C -1.6200 -1.5925 -1.6078
C -1.6207 -1.5958 -1.6062
C -1.6163 -1.5915 -1.6101
C -1.6222 -1.5919 -1.6067
C -1.6254 -1.5933 -1.6066
C -1.6194 -1.5918 -1.6086
C -1.6232 -1.5874 -1.6052
C -1.6253 -1.5876 -1.6057
C -1.6198 -1.5866 -1.6055
C -1.6254 -1.5860 -1.6037
C -1.6241 -1.5808 -1.6037
C -1.6324 -1.5874 -1.6023
C -1.6358 -1.5854 -1.6009
C -1.6356 -1.5921 -1.6031
C -1.6332 -1.5941 -1.6049
C -1.6425 -1.5938 -1.6023
C -1.6465 -1.5922 -1.6020
C -1.6438 -1.6017 -1.6032
C -1.6411 -1.6039 -1.6036
C -1.6478 -1.6031 -1.6006
C -1.6420 -1.6024 -1.6061
C -1.6388 -1.6031 -1.6084
C -1.6445 -1.6063 -1.6062
C -1.6417 -1.5983 -1.6043
C -1.6375 -1.5963 -1.6060
C -1.6465 -1.5959 -1.6031
C -1.6451 -1.5899 -1.6010
C -1.6466 -1.5866 -1.5994
C -1.6435 -1.5898 -1.6007
C -1.6386 -1.5920 -1.6018
C -1.6448 -1.5865 -1.5992
C -1.6486 -1.5825 -1.5979
C -1.6474 -1.5915 -1.5985
C -1.6485 -1.5891 -1.5972
C -1.6522 -1.5946 -1.5969
C -1.6490 -1.5893 -1.5956
C -1.6566 -1.5984 -1.5909
C -1.6538 -1.5984 -1.6044
C -1.6433 -1.5973 -1.6011
C -1.6415 -1.5997 -1.6027
C -1.6407 -1.5829 -1.6001
C -1.6411 -1.5861 -1.6014
C -1.6355 -1.5777 -1.5992
C -1.6341 -1.5756 -1.5984
C -1.6314 -1.5738 -1.6003
C -1.6271 -1.5753 -1.6010
C -1.6329 -1.5689 -1.5983
C -1.6300 -1.5732 -1.5990
C -1.6304 -1.5683 -1.5970
C -1.6290 -1.5776 -1.5999
C -1.6277 -1.5827 -1.6017
C -1.6281 -1.5767 -1.5981
C -1.6298 -1.5737 -1.5969
C -1.6293 -1.5820 -1.5985
C -1.6250 -1.5849 -1.5893
C -1.6366 -1.5710 -1.6009
C -1.6393 -1.5671 -1.6094
C -1.6370 -1.5664 -1.5946
C -1.6391 -1.5720 -1.6012
C -1.6284 -1.5937 -1.6078
C -1.6232 -1.6002 -1.6074
C -1.6237 -1.5742 -1.5966
C -1.6212 -1.5757 -1.5988
C -1.6238 -1.5694 -1.5932
C -1.6279 -1.5723 -1.5895
C -1.6199 -1.5676 -1.5912
C -1.6165 -1.5663 -1.5900
C -1.6211 -1.5638 -1.5875
C -1.6245 -1.5654 -1.5858
C -1.6188 -1.5620 -1.5874
C -1.6222 -1.5598 -1.5844
C -1.6246 -1.5606 -1.5887
C -1.6254 -1.5638 -1.5944
C -1.6270 -1.5571 -1.5838
C -1.6304 -1.5567 -1.5856
C -1.6241 -1.5537 -1.5764
C -1.6231 -1.5483 -1.5696
C -1.6260 -1.5467 -1.5698
C -1.6190 -1.5463 -1.5627
C -1.6176 -1.5432 -1.5568
C -1.6158 -1.5485 -1.5623
C -1.6117 -1.5462 -1.5565
C -1.6169 -1.5525 -1.5692
C -1.6156 -1.5538 -1.5680
C -1.6208 -1.5556 -1.5764
C -1.6175 -1.5698 -1.5940
C -1.6205 -1.5712 -1.5955
C -1.6122 -1.5689 -1.5940
C -1.6114 -1.5672 -1.5961
C -1.6086 -1.5715 -1.5938
C -1.6044 -1.5697 -1.5951
C -1.6078 -1.5704 -1.5926
C -1.6102 -1.5782 -1.5943
C -1.6115 -1.5824 -1.5960
C -1.6097 -1.5817 -1.5950
138
REAL frame=198
C -1.6216 -1.5862 -1.5951
C -1.6246 -1.5897 -1.5941
C -1.6223 -1.5815 -1.5956
C -1.6188 -1.5868 -1.5957
C -1.6190 -1.5874 -1.5975
C -1.6154 -1.5887 -1.5969
C -1.6202 -1.5904 -1.6001
C -1.6190 -1.5867 -1.5954
C -1.6227 -1.5891 -1.5928
C -1.6150 -1.5829 -1.5962
C -1.6116 -1.5804 -1.5967
C -1.6156 -1.5815 -1.5977
C -1.6168 -1.5784 -1.5958
C -1.6112 -1.5768 -1.5998
C -1.6086 -1.5711 -1.5980
C -1.6087 -1.5806 -1.6011
C -1.6134 -1.5752 -1.6041
C -1.6109 -1.5838 -1.6081
C -1.6077 -1.5914 -1.6076
C -1.6161 -1.5824 -1.6127
C -1.6178 -1.5892 -1.6150
C -1.6213 -1.5718 -1.6133
C -1.6258 -1.5697 -1.6174
C -1.6186 -1.5657 -1.6116
C -1.6233 -1.5634 -1.6095
C -1.6277 -1.5553 -1.6098
C -1.6188 -1.5649 -1.6049
C -1.6205 -1.5586 -1.6016
C -1.6180 -1.5873 -1.6012
C -1.6189 -1.5929 -1.6011
C -1.6180 -1.5856 -1.6039
C -1.6175 -1.5799 -1.6035
C -1.6190 -1.5910 -1.6073
C -1.6147 -1.5916 -1.6110
C -1.6223 -1.5976 -1.6083
C -1.6207 -1.5999 -1.6076
C -1.6215 -1.6026 -1.6100
C -1.6271 -1.5931 -1.6064
C -1.6237 -1.5864 -1.6071
C -1.6344 -1.5955 -1.6041
C -1.6211 -1.5889 -1.6051
C -1.6221 -1.5864 -1.6027
C -1.6221 -1.5894 -1.6058
C -1.6202 -1.5924 -1.6077
C -1.6212 -1.5956 -1.6066
C -1.6163 -1.5917 -1.6090
C -1.6223 -1.5919 -1.6068
C -1.6254 -1.5931 -1.6067
C -1.6194 -1.5919 -1.6086
C -1.6232 -1.5874 -1.6053
C -1.6251 -1.5875 -1.6056
C -1.6198 -1.5867 -1.6054
C -1.6253 -1.5858 -1.6037
C -1.6240 -1.5811 -1.6034
C -1.6325 -1.5874 -1.6023
C -1.6357 -1.5854 -1.6011
C -1.6357 -1.5922 -1.6031
C -1.6333 -1.5943 -1.6052
C -1.6425 -1.5939 -1.6023
C -1.6465 -1.5924 -1.6022
C -1.6439 -1.6017 -1.6034
C -1.6415 -1.6038 -1.6036
C -1.6478 -1.6035 -1.6000
C -1.6420 -1.6025 -1.6061
C -1.6388 -1.6033 -1.6085
C -1.6444 -1.6065 -1.6066
C -1.6419 -1.5981 -1.6042
C -1.6375 -1.5964 -1.6061
C -1.6465 -1.5959 -1.6030
C -1.6452 -1.5897 -1.6008
C -1.6466 -1.5866 -1.5994
C -1.6435 -1.5896 -1.6008
C -1.6392 -1.5921 -1.6015
C -1.6449 -1.5865 -1.5993
C -1.6487 -1.5823 -1.5988
C -1.6475 -1.5917 -1.5984
C -1.6485 -1.5893 -1.5971
C -1.6521 -1.5946 -1.5969
C -1.6487 -1.5894 -1.5953
C -1.6567 -1.5977 -1.5904
C -1.6544 -1.5981 -1.6043
C -1.6433 -1.5974 -1.6011
C -1.6413 -1.5996 -1.6027
C -1.6408 -1.5827 -1.6003
C -1.6410 -1.5860 -1.6015
C -1.6356 -1.5777 -1.5991
C -1.6341 -1.5755 -1.5982
C -1.6313 -1.5739 -1.6003
C -1.6271 -1.5749 -1.6014
C -1.6331 -1.5688 -1.5983
C -1.6299 -1.5732 -1.5990
C -1.6304 -1.5683 -1.5970
C -1.6288 -1.5775 -1.5999
C -1.6277 -1.5828 -1.6015
C -1.6281 -1.5768 -1.5981
C -1.6301 -1.5740 -1.5966
C -1.6293 -1.5821 -1.5986
C -1.6247 -1.5847 -1.5892
C -1.6367 -1.5710 -1.6010
C -1.6394 -1.5672 -1.6095
C -1.6374 -1.5665 -1.5946
C -1.6391 -1.5721 -1.6011
C -1.6284 -1.5938 -1.6077
C -1.6229 -1.6001 -1.6069
C -1.6237 -1.5742 -1.5965
C -1.6212 -1.5758 -1.5989
C -1.6238 -1.5694 -1.5932
C -1.6276 -1.5723 -1.5895
C -1.6201 -1.5677 -1.5914
C -1.6163 -1.5666 -1.5899
C -1.6209 -1.5639 -1.5875
C -1.6247 -1.5651 -1.5859
C -1.6188 -1.5625 -1.5878
C -1.6221 -1.5599 -1.5843
C -1.6246 -1.5607 -1.5886
C -1.6253 -1.5638 -1.5943
C -1.6269 -1.5571 -1.5838
C -1.6310 -1.5564 -1.5849
C -1.6240 -1.5536 -1.5764
C -1.6231 -1.5483 -1.5695
C -1.6259 -1.5466 -1.5695
C -1.6190 -1.5463 -1.5627
C -1.6179 -1.5429 -1.5570
C -1.6159 -1.5484 -1.5623
C -1.6119 -1.5468 -1.5568
C -1.6169 -1.5525 -1.5691
C -1.6158 -1.5538 -1.5680
C -1.6207 -1.5556 -1.5765
C -1.6176 -1.5699 -1.5939
C -1.6206 -1.5713 -1.5954
C -1.6124 -1.5689 -1.5941
C -1.6118 -1.5667 -1.5960
C -1.6085 -1.5715 -1.5938
C -1.6043 -1.5695 -1.5951
C -1.6081 -1.5705 -1.5927
C -1.6101 -1.5783 -1.5943
C -1.6114 -1.5823 -1.5960
C -1.6098 -1.5817 -1.5949
138
REAL frame=199
C -1.6217 -1.5861 -1.5951
C -1.6246 -1.5900 -1.5940
C -1.6225 -1.5814 -1.5951
C -1.6193 -1.5869 -1.5955
C -1.6190 -1.5875 -1.5974
C -1.6154 -1.5887 -1.5968
C -1.6204 -1.5898 -1.6003
C -1.6189 -1.5866 -1.5955
C -1.6228 -1.5892 -1.5928
C -1.6150 -1.5829 -1.5963
C -1.6120 -1.5809 -1.5966
C -1.6155 -1.5815 -1.5976
C -1.6170 -1.5781 -1.5960
C -1.6111 -1.5766 -1.6000
C -1.6085 -1.5709 -1.5982
C -1.6087 -1.5808 -1.6008
C -1.6132 -1.5752 -1.6041
C -1.6109 -1.5839 -1.6081
C -1.6080 -1.5915 -1.6073
C -1.6161 -1.5824 -1.6128
C -1.6177 -1.5890 -1.6152
C -1.6212 -1.5718 -1.6132
C -1.6257 -1.5698 -1.6175
C -1.6191 -1.5652 -1.6117
C -1.6233 -1.5632 -1.6095
C -1.6282 -1.5554 -1.6090
C -1.6188 -1.5649 -1.6048
C -1.6204 -1.5579 -1.6017
C -1.6180 -1.5873 -1.6012
C -1.6188 -1.5930 -1.6011
C -1.6180 -1.5855 -1.6039
C -1.6173 -1.5800 -1.6032
C -1.6191 -1.5909 -1.6073
C -1.6149 -1.5914 -1.6111
C -1.6224 -1.5975 -1.6083
C -1.6207 -1.5996 -1.6076
C -1.6215 -1.6025 -1.6102
C -1.6271 -1.5932 -1.6063
C -1.6238 -1.5864 -1.6071
C -1.6344 -1.5955 -1.6041
C -1.6212 -1.5890 -1.6052
C -1.6221 -1.5864 -1.6027
C -1.6221 -1.5893 -1.6058
C -1.6204 -1.5924 -1.6076
C -1.6218 -1.5954 -1.6073
C -1.6164 -1.5918 -1.6080
C -1.6225 -1.5919 -1.6068
C -1.6256 -1.5931 -1.6067
C -1.6194 -1.5920 -1.6086
C -1.6233 -1.5874 -1.6054
C -1.6250 -1.5873 -1.6055
C -1.6197 -1.5866 -1.6054
C -1.6252 -1.5857 -1.6037
C -1.6239 -1.5813 -1.6029
C -1.6326 -1.5875 -1.6024
C -1.6355 -1.5854 -1.6013
C -1.6357 -1.5922 -1.6031
C -1.6335 -1.5944 -1.6054
C -1.6426 -1.5941 -1.6023
C -1.6461 -1.5925 -1.6023
C -1.6439 -1.6016 -1.6034
C -1.6419 -1.6039 -1.6039
C -1.6478 -1.6039 -1.5997
C -1.6419 -1.6027 -1.6060
C -1.6387 -1.6033 -1.6088
C -1.6443 -1.6066 -1.6070
C -1.6421 -1.5981 -1.6043
C -1.6375 -1.5964 -1.6062
C -1.6465 -1.5958 -1.6029
C -1.6453 -1.5895 -1.6006
C -1.6466 -1.5867 -1.5993
C -1.6434 -1.5895 -1.6008
C -1.6399 -1.5922 -1.6013
C -1.6451 -1.5864 -1.5995
C -1.6487 -1.5822 -1.5995
C -1.6476 -1.5919 -1.5983
C -1.6486 -1.5897 -1.5969
C -1.6521 -1.5945 -1.5970
C -1.6485 -1.5895 -1.5950
C -1.6566 -1.5970 -1.5899
C -1.6549 -1.5978 -1.6043
C -1.6434 -1.5975 -1.6010
C -1.6411 -1.5995 -1.6026
C -1.6408 -1.5827 -1.6004
C -1.6410 -1.5859 -1.6016
C -1.6357 -1.5778 -1.5991
C -1.6342 -1.5754 -1.5981
C -1.6312 -1.5739 -1.6003
C -1.6273 -1.5743 -1.6019
C -1.6333 -1.5687 -1.5985
C -1.6299 -1.5733 -1.5991
C -1.6304 -1.5683 -1.5969
C -1.6287 -1.5775 -1.5998
C -1.6278 -1.5825 -1.6013
C -1.6281 -1.5768 -1.5981
C -1.6305 -1.5744 -1.5964
C -1.6292 -1.5821 -1.5987
C -1.6247 -1.5847 -1.5892
C -1.6367 -1.5710 -1.6012
C -1.6393 -1.5671 -1.6098
C -1.6377 -1.5667 -1.5946
C -1.6390 -1.5721 -1.6009
C -1.6285 -1.5939 -1.6076
C -1.6228 -1.5999 -1.6067
C -1.6238 -1.5741 -1.5965
C -1.6212 -1.5759 -1.5990
C -1.6237 -1.5695 -1.5932
C -1.6276 -1.5720 -1.5896
C -1.6202 -1.5677 -1.5916
C -1.6164 -1.5669 -1.5901
C -1.6208 -1.5638 -1.5875
C -1.6248 -1.5650 -1.5861
C -1.6188 -1.5627 -1.5881
C -1.6221 -1.5601 -1.5843
C -1.6245 -1.5607 -1.5884
C -1.6253 -1.5637 -1.5941
C -1.6269 -1.5570 -1.5838
C -1.6314 -1.5563 -1.5845
C -1.6239 -1.5535 -1.5764
C -1.6232 -1.5483 -1.5695
C -1.6258 -1.5467 -1.5692
C -1.6189 -1.5463 -1.5626
C -1.6182 -1.5425 -1.5572
C -1.6160 -1.5483 -1.5624
C -1.6122 -1.5473 -1.5571
C -1.6170 -1.5525 -1.5690
C -1.6158 -1.5539 -1.5683
C -1.6207 -1.5557 -1.5765
C -1.6177 -1.5699 -1.5938
C -1.6207 -1.5714 -1.5954
C -1.6125 -1.5689 -1.5942
C -1.6121 -1.5662 -1.5957
C -1.6085 -1.5715 -1.5938
C -1.6043 -1.5693 -1.5950
C -1.6084 -1.5706 -1.5929
C -1.6101 -1.5784 -1.5943
C -1.6112 -1.5823 -1.5960
C -1.6098 -1.5817 -1.5948
